Node Number	Equivalent (von-Mises) Stress (MPa)
1	0.14992
2	0.3015
3	9.1286e-002
4	0.28777
5	0.25918
6	0.30535
7	0.39872
8	0.28711
9	0.85668
10	0.78845
11	1.0888
12	1.1893
13	1.3477
14	1.4485
15	1.7419
16	1.5598
17	1.4554
18	1.6647
19	1.7024
20	1.2995
21	0.98157
22	0.85416
23	0.22345
24	0.36869
25	0.48392
26	0.72126
27	0.97679
28	1.0245
29	1.0477
30	1.1759
31	1.0293
32	0.80861
33	0.90917
34	0.8605
35	0.52739
36	0.40581
37	0.82749
38	0.78642
39	1.1769
40	1.2671
41	1.6552
42	1.7569
43	1.4748
44	1.4268
45	1.4874
46	1.3472
47	1.0802
48	1.0139
49	1.2483
50	1.0447
51	41.911
52	40.336
53	41.332
54	41.221
55	41.096
56	39.669
57	37.408
58	37.413
59	34.618
60	33.937
61	33.433
62	31.432
63	29.521
64	27.505
65	26.143
66	23.927
67	23.545
68	21.438
69	19.898
70	18.882
71	17.209
72	15.462
73	14.259
74	12.688
75	11.136
76	8.9575
77	7.731
78	5.7962
79	4.1485
80	1.7398
81	13.96
82	2.2901
83	4.6228
84	6.6565
85	8.1232
86	9.6878
87	11.627
88	13.62
89	14.81
90	16.787
91	18.758
92	20.146
93	21.907
94	22.89
95	25.817
96	28.848
97	29.459
98	31.632
99	31.32
100	35.09
101	39.101
102	40.661
103	37.195
104	39.289
105	43.533
106	42.057
107	47.848
108	43.653
109	50.057
110	43.57
111	0.23878
112	0.39402
113	0.11338
114	0.3247
115	0.29755
116	0.43526
117	0.38549
118	0.36067
119	0.97195
120	0.85594
121	1.0766
122	1.1929
123	1.3481
124	1.4488
125	1.742
126	1.5599
127	1.4551
128	1.6645
129	1.7023
130	1.3036
131	0.93209
132	0.85251
133	0.5891
134	0.31668
135	0.58404
136	0.72517
137	0.97862
138	1.0239
139	1.0469
140	1.1759
141	1.029
142	0.80764
143	0.90721
144	0.85866
145	0.50957
146	0.36345
147	1.0298
148	0.87658
149	1.3423
150	1.2662
151	1.6551
152	1.7568
153	1.4745
154	1.4269
155	1.4874
156	1.3467
157	1.081
158	1.0175
159	1.2362
160	1.0596
161	38.969
162	39.85
163	41.411
164	41.207
165	41.284
166	40.032
167	36.808
168	36.859
169	34.267
170	33.69
171	33.309
172	31.217
173	29.457
174	27.48
175	26.162
176	23.934
177	23.544
178	21.442
179	19.902
180	18.88
181	17.21
182	15.463
183	14.26
184	12.688
185	11.136
186	8.958
187	7.7311
188	5.7963
189	4.1433
190	1.7855
191	15.681
192	2.2987
193	4.6185
194	6.6563
195	8.1238
196	9.6886
197	11.628
198	13.622
199	14.811
200	16.789
201	18.756
202	20.144
203	21.912
204	22.889
205	25.807
206	28.853
207	29.446
208	31.57
209	31.181
210	34.927
211	38.719
212	40.386
213	36.94
214	38.639
215	43.88
216	42.382
217	47.88
218	43.551
219	49.93
220	40.327
221	0.14995
222	0.3037
223	8.0775e-002
224	0.27126
225	0.25375
226	0.31137
227	0.35179
228	0.28257
229	0.85668
230	0.78846
231	1.0888
232	1.1893
233	1.3478
234	1.4486
235	1.7419
236	1.5595
237	1.4548
238	1.6652
239	1.7033
240	1.2993
241	0.98165
242	0.85336
243	0.22342
244	0.3618
245	0.48412
246	0.72119
247	0.97769
248	1.0234
249	1.0461
250	1.176
251	1.0297
252	0.80852
253	0.90917
254	0.86046
255	0.52743
256	0.4057
257	0.82749
258	0.79053
259	1.1778
260	1.267
261	1.6559
262	1.7573
263	1.4749
264	1.4262
265	1.4873
266	1.3473
267	1.0803
268	1.014
269	1.2483
270	1.0448
271	37.869
272	38.926
273	40.925
274	41.073
275	41.13
276	39.986
277	36.79
278	36.845
279	34.261
280	33.688
281	33.307
282	31.208
283	29.454
284	27.478
285	26.162
286	23.932
287	23.543
288	21.44
289	19.9
290	18.878
291	17.208
292	15.461
293	14.258
294	12.687
295	11.135
296	8.9569
297	7.7307
298	5.7961
299	4.1484
300	1.7398
301	14.76
302	2.2901
303	4.6227
304	6.6564
305	8.1229
306	9.6877
307	11.627
308	13.621
309	14.809
310	16.787
311	18.754
312	20.142
313	21.911
314	22.887
315	25.804
316	28.851
317	29.445
318	31.567
319	31.176
320	34.925
321	38.715
322	40.382
323	36.937
324	38.622
325	43.853
326	42.283
327	47.803
328	43.27
329	49.651
330	40.095
331	0.21852
332	0.34176
333	0.15044
334	0.34155
335	0.29759
336	0.34773
337	0.43087
338	0.30263
339	0.9253
340	0.83376
341	1.083
342	1.2232
343	1.2761
344	1.4427
345	1.7415
346	1.5605
347	1.4554
348	1.6651
349	1.7035
350	1.2992
351	0.9806
352	0.8507
353	0.50939
354	0.36254
355	0.48324
356	0.7215
357	0.97873
358	1.0261
359	1.0482
360	1.1781
361	1.0294
362	0.80563
363	1.0132
364	0.82679
365	0.46966
366	0.37964
367	0.97726
368	0.78223
369	1.1771
370	1.267
371	1.6562
372	1.7577
373	1.4747
374	1.4276
375	1.4881
376	1.3441
377	1.0836
378	1.0425
379	1.2152
380	1.0746
381	38.808
382	40.088
383	41.618
384	41.271
385	41.197
386	39.973
387	37.118
388	37.122
389	34.431
390	33.773
391	33.332
392	31.259
393	29.47
394	27.485
395	26.16
396	23.934
397	23.545
398	21.441
399	19.901
400	18.88
401	17.209
402	15.462
403	14.259
404	12.687
405	11.135
406	8.9566
407	7.7298
408	5.7954
409	4.143
410	1.7674
411	14.438
412	2.2961
413	4.6203
414	6.6549
415	8.1223
416	9.6874
417	11.627
418	13.62
419	14.81
420	16.788
421	18.756
422	20.144
423	21.911
424	22.889
425	25.809
426	28.853
427	29.446
428	31.577
429	31.206
430	34.951
431	38.772
432	40.439
433	37.121
434	38.959
435	43.958
436	42.295
437	47.909
438	43.746
439	50.437
440	42.219
441	0.23454
442	0.40374
443	0.10633
444	0.3418
445	0.30927
446	0.42905
447	0.40848
448	0.3616
449	0.97201
450	0.85592
451	1.0764
452	1.1927
453	1.348
454	1.4483
455	1.742
456	1.5595
457	1.4552
458	1.6645
459	1.7026
460	1.3034
461	0.93156
462	0.85078
463	0.58913
464	0.31408
465	0.58304
466	0.72423
467	0.97619
468	1.0194
469	1.0459
470	1.1742
471	1.0284
472	0.80606
473	0.90667
474	0.85693
475	0.50935
476	0.36299
477	1.0298
478	0.87468
479	1.343
480	1.2655
481	1.6547
482	1.7566
483	1.4746
484	1.4266
485	1.4872
486	1.3465
487	1.0808
488	1.0172
489	1.236
490	1.0595
491	37.952
492	38.535
493	46.2
494	39.961
495	40.121
496	39.283
497	37.188
498	37.334
499	34.579
500	33.925
501	33.429
502	31.432
503	29.526
504	27.513
505	26.151
506	23.933
507	23.547
508	21.44
509	19.899
510	18.882
511	17.21
512	15.463
513	14.26
514	12.689
515	11.137
516	8.9586
517	7.7316
518	5.7967
519	4.1436
520	1.7856
521	14.124
522	2.2988
523	4.6187
524	6.6565
525	8.1241
526	9.6886
527	11.628
528	13.621
529	14.811
530	16.788
531	18.758
532	20.146
533	21.909
534	22.891
535	25.818
536	28.852
537	29.464
538	31.637
539	31.326
540	35.093
541	39.1
542	40.655
543	37.139
544	39.184
545	43.36
546	41.371
547	47.336
548	44.658
549	48.456
550	40.701
551	0.23318
552	0.40372
553	0.11479
554	0.32034
555	0.30903
556	0.42901
557	0.41707
558	0.36242
559	6.0275e-002
560	0.16148
561	0.27332
562	0.34545
563	0.2758
564	0.35749
565	0.39762
566	0.33008
567	0.22333
568	0.85673
569	0.37063
570	0.48182
571	0.71961
572	0.97458
573	1.0191
574	1.0457
575	1.1744
576	1.0288
577	0.80688
578	0.9086
579	0.85915
580	0.52726
581	0.40534
582	0.78843
583	1.0887
584	1.189
585	1.3476
586	1.448
587	1.7419
588	1.5594
589	1.455
590	1.6644
591	1.703
592	1.2985
593	0.97985
594	0.84757
595	0.82751
596	0.78958
597	1.1757
598	1.2657
599	1.6548
600	1.7566
601	1.4745
602	1.4266
603	1.4873
604	1.3468
605	1.08
606	1.0137
607	1.2482
608	1.0447
609	39.878
610	40.584
611	41.359
612	41.335
613	41.245
614	40.02
615	36.807
616	36.845
617	34.255
618	33.683
619	33.305
620	31.212
621	29.458
622	27.483
623	26.166
624	23.935
625	23.544
626	21.441
627	19.901
628	18.878
629	17.208
630	15.462
631	14.259
632	12.687
633	11.135
634	8.9573
635	7.7311
636	5.7964
637	4.1486
638	1.7399
639	14.108
640	2.2902
641	4.623
642	6.6567
643	8.1232
644	9.6878
645	11.627
646	13.621
647	14.809
648	16.788
649	18.754
650	20.143
651	21.912
652	22.888
653	25.806
654	28.854
655	29.449
656	31.571
657	31.179
658	34.925
659	38.717
660	40.385
661	36.941
662	38.615
663	43.886
664	42.396
665	47.962
666	43.605
667	49.823
668	41.885
669	0.11282
670	0.20519
671	0.34074
672	0.37849
673	0.2982
674	0.37518
675	0.35009
676	0.30712
677	0.58916
678	0.97208
679	0.31075
680	0.5779
681	0.72525
682	0.97466
683	1.0161
684	1.0452
685	1.174
686	1.0285
687	0.80465
688	0.90612
689	0.85556
690	0.50923
691	0.36229
692	0.85594
693	1.0764
694	1.1925
695	1.3481
696	1.4481
697	1.7424
698	1.5598
699	1.4554
700	1.6644
701	1.7022
702	1.3041
703	0.93522
704	0.85544
705	1.0298
706	0.895
707	1.345
708	1.2657
709	1.6543
710	1.7562
711	1.475
712	1.427
713	1.4876
714	1.3463
715	1.0808
716	1.017
717	1.2359
718	1.0595
719	36.147
720	37.869
721	46.426
722	40.151
723	40.236
724	39.669
725	36.623
726	36.758
727	34.21
728	33.665
729	33.298
730	31.181
731	29.449
732	27.481
733	26.17
734	23.935
735	23.543
736	21.441
737	19.901
738	18.877
739	17.208
740	15.462
741	14.259
742	12.686
743	11.136
744	8.9578
745	7.7314
746	5.7968
747	4.1437
748	1.7857
749	15.873
750	2.299
751	4.6187
752	6.6565
753	8.1238
754	9.6879
755	11.627
756	13.622
757	14.809
758	16.787
759	18.751
760	20.141
761	21.913
762	22.887
763	25.801
764	28.853
765	29.45
766	31.567
767	31.164
768	34.92
769	38.695
770	40.361
771	36.887
772	38.512
773	43.706
774	41.717
775	47.425
776	44.854
777	48.826
778	38.916
779	8.361e-002
780	0.15781
781	0.29836
782	0.31412
783	0.26428
784	0.31532
785	0.39156
786	0.2946
787	0.50937
788	0.92553
789	0.37441
790	0.52662
791	0.71877
792	0.97574
793	1.0192
794	1.0456
795	1.1757
796	1.029
797	0.80462
798	0.90619
799	0.84314
800	0.47128
801	0.37872
802	0.83367
803	1.0819
804	1.2233
805	1.3385
806	1.4432
807	1.7414
808	1.5595
809	1.4552
810	1.6652
811	1.703
812	1.2925
813	1.0774
814	0.87228
815	0.97739
816	0.8387
817	1.211
818	1.2645
819	1.6557
820	1.7574
821	1.4752
822	1.4266
823	1.4876
824	1.3473
825	1.0716
826	1.0354
827	1.2151
828	1.0743
829	39.481
830	39.443
831	41.284
832	41.247
833	41.222
834	39.989
835	36.766
836	36.828
837	34.242
838	33.676
839	33.303
840	31.204
841	29.455
842	27.482
843	26.168
844	23.935
845	23.544
846	21.441
847	19.901
848	18.877
849	17.208
850	15.461
851	14.258
852	12.686
853	11.135
854	8.9567
855	7.7301
856	5.7958
857	4.1431
858	1.7674
859	15.156
860	2.2961
861	4.6204
862	6.6552
863	8.1224
864	9.6869
865	11.626
866	13.62
867	14.809
868	16.787
869	18.753
870	20.142
871	21.912
872	22.888
873	25.804
874	28.853
875	29.449
876	31.569
877	31.175
878	34.922
879	38.712
880	40.38
881	36.921
882	38.607
883	43.875
884	42.356
885	47.965
886	43.57
887	50.002
888	41.35
889	0.12765
890	0.21291
891	0.31938
892	0.35295
893	0.28043
894	0.37882
895	0.3561
896	0.31597
897	0.50787
898	0.92671
899	0.35982
900	0.48143
901	0.7211
902	0.97374
903	1.0154
904	1.0426
905	1.1712
906	1.0261
907	0.79885
908	1.0062
909	0.83106
910	0.51632
911	0.3705
912	0.82951
913	1.0736
914	1.1833
915	1.2822
916	1.4441
917	1.741
918	1.5575
919	1.4536
920	1.6639
921	1.7023
922	1.2993
923	0.98177
924	0.84682
925	0.97713
926	0.80521
927	1.1771
928	1.2658
929	1.6543
930	1.7559
931	1.4742
932	1.4248
933	1.486
934	1.3413
935	1.0905
936	1.0163
937	1.2347
938	1.0592
939	38.004
940	40.717
941	42.24
942	41.559
943	41.446
944	40.049
945	36.782
946	36.825
947	34.237
948	33.674
949	33.306
950	31.202
951	29.46
952	27.489
953	26.175
954	23.941
955	23.548
956	21.448
957	19.91
958	18.886
959	17.218
960	15.473
961	14.268
962	12.69
963	11.14
964	8.9598
965	7.7327
966	5.7971
967	4.144
968	1.7639
969	13.891
970	2.2874
971	4.6199
972	6.6572
973	8.1248
974	9.6886
975	11.63
976	13.625
977	14.817
978	16.793
979	18.758
980	20.147
981	21.917
982	22.892
983	25.805
984	28.854
985	29.452
986	31.572
987	31.175
988	34.92
989	38.705
990	40.373
991	36.912
992	38.614
993	43.913
994	42.513
995	48.169
996	44.263
997	50.915
998	42.549
999	0.17106
1000	0.22416
1001	0.33678
1002	0.39675
1003	0.30594
1004	0.42028
1005	0.41551
1006	0.35481
1007	0.5892
1008	0.9719
1009	0.31332
1010	0.58277
1011	0.72398
1012	0.97538
1013	1.0173
1014	1.0453
1015	1.1741
1016	1.0281
1017	0.80294
1018	1.0121
1019	0.83599
1020	0.50742
1021	0.36251
1022	0.85606
1023	1.0774
1024	1.1924
1025	1.2852
1026	1.4468
1027	1.7423
1028	1.5596
1029	1.4551
1030	1.6643
1031	1.7025
1032	1.3032
1033	0.93152
1034	0.84955
1035	1.0297
1036	0.87329
1037	1.3428
1038	1.2652
1039	1.6544
1040	1.7564
1041	1.4747
1042	1.4268
1043	1.4875
1044	1.3426
1045	1.0935
1046	1.0228
1047	1.2358
1048	1.0598
1049	38.917
1050	40.189
1051	41.789
1052	41.442
1053	41.347
1054	40.039
1055	36.798
1056	36.831
1057	34.243
1058	33.677
1059	33.304
1060	31.195
1061	29.454
1062	27.482
1063	26.169
1064	23.935
1065	23.544
1066	21.442
1067	19.901
1068	18.878
1069	17.209
1070	15.462
1071	14.26
1072	12.687
1073	11.136
1074	8.958
1075	7.7314
1076	5.7968
1077	4.1438
1078	1.7857
1079	13.815
1080	2.2991
1081	4.6189
1082	6.6566
1083	8.1239
1084	9.6883
1085	11.627
1086	13.622
1087	14.81
1088	16.788
1089	18.753
1090	20.142
1091	21.913
1092	22.888
1093	25.803
1094	28.852
1095	29.449
1096	31.568
1097	31.169
1098	34.92
1099	38.708
1100	40.379
1101	36.928
1102	38.616
1103	43.912
1104	42.476
1105	48.114
1106	44.001
1107	50.662
1108	42.199
1109	0.27397
1110	0.14618
1111	0.38027
1112	0.45794
1113	0.80594
1114	0.99709
1115	0.79581
1116	1.0458
1117	1.1612
1118	0.93763
1119	0.93365
1120	1.0052
1121	0.75144
1122	0.54755
1123	0.39939
1124	0.86252
1125	0.32294
1126	0.9077
1127	1.2075
1128	1.2792
1129	1.6632
1130	1.7443
1131	1.4689
1132	1.4396
1133	1.4864
1134	1.3467
1135	1.0913
1136	1.0397
1137	1.1537
1138	0.99234
1139	0.21452
1140	0.3413
1141	0.28697
1142	0.34997
1143	0.39441
1144	0.302
1145	0.94229
1146	1.1222
1147	1.2663
1148	1.2294
1149	1.2859
1150	1.4423
1151	1.7383
1152	1.5575
1153	1.4385
1154	1.6622
1155	1.711
1156	1.305
1157	1.1206
1158	0.91193
1159	38.081
1160	39.602
1161	42.303
1162	41.776
1163	38.827
1164	37.514
1165	38.263
1166	35.911
1167	38.368
1168	35.37
1169	33.661
1170	30.966
1171	30.301
1172	26.405
1173	27.687
1174	23.739
1175	23.546
1176	21.444
1177	20.001
1178	19.093
1179	17.163
1180	15.445
1181	14.227
1182	12.716
1183	11.148
1184	8.9604
1185	7.7204
1186	5.7896
1187	4.1484
1188	1.7773
1189	14.707
1190	2.3171
1191	4.6198
1192	6.6436
1193	8.123
1194	9.6933
1195	11.648
1196	13.584
1197	14.796
1198	16.782
1199	18.805
1200	20.311
1201	21.967
1202	22.876
1203	25.755
1204	28.788
1205	29.115
1206	28.944
1207	32.09
1208	35.728
1209	37.372
1210	39.382
1211	41.687
1212	40.378
1213	43.617
1214	42.865
1215	46.79
1216	43.518
1217	48.249
1218	39.448
1219	0.6592
1220	0.68631
1221	0.94467
1222	0.81144
1223	0.78296
1224	0.63278
1225	0.7646
1226	0.9054
1227	0.88129
1228	0.69523
1229	0.42588
1230	0.56125
1231	0.61172
1232	1.1627
1233	1.177
1234	0.62026
1235	0.69069
1236	0.72042
1237	0.89797
1238	0.71469
1239	0.55128
1240	0.80552
1241	0.94073
1242	1.0522
1243	0.91008
1244	0.62891
1245	0.5214
1246	0.812
1247	0.93203
1248	1.102
1249	0.57545
1250	0.47462
1251	0.81126
1252	0.98559
1253	0.64191
1254	0.59401
1255	0.88644
1256	0.77489
1257	0.89127
1258	0.71511
1259	0.63006
1260	0.6243
1261	0.71337
1262	1.1274
1263	0.75425
1264	0.61832
1265	0.484
1266	0.87965
1267	0.92788
1268	0.76776
1269	0.65078
1270	0.41174
1271	0.65471
1272	0.75856
1273	0.94477
1274	0.43898
1275	0.59187
1276	0.94092
1277	0.99817
1278	0.96542
1279	0.50167
1280	0.32855
1281	0.85427
1282	0.79183
1283	1.0988
1284	1.2272
1285	1.2763
1286	1.4428
1287	1.7389
1288	1.558
1289	1.4537
1290	1.664
1291	1.7023
1292	1.2991
1293	0.97984
1294	0.85061
1295	0.2271
1296	0.36893
1297	0.48328
1298	0.72191
1299	0.98067
1300	1.0386
1301	1.0503
1302	1.1774
1303	1.0284
1304	0.81051
1305	1.0207
1306	0.83377
1307	0.47862
1308	0.41398
1309	0.82694
1310	0.79162
1311	1.1764
1312	1.2674
1313	1.6555
1314	1.757
1315	1.4725
1316	1.4249
1317	1.4857
1318	1.3439
1319	1.084
1320	1.0441
1321	1.2278
1322	1.0595
1323	35.514
1324	38.109
1325	46.645
1326	41.05
1327	38.514
1328	37.562
1329	38.707
1330	36.886
1331	34.025
1332	35.795
1333	33.833
1334	31.21
1335	30.366
1336	26.475
1337	27.704
1338	23.747
1339	23.548
1340	21.428
1341	19.883
1342	18.904
1343	17.225
1344	15.476
1345	14.269
1346	12.704
1347	11.142
1348	8.9616
1349	7.732
1350	5.7966
1351	4.1486
1352	1.7432
1353	13.361
1354	2.299
1355	4.6246
1356	6.6562
1357	8.1257
1358	9.6929
1359	11.638
1360	13.627
1361	14.826
1362	16.802
1363	18.788
1364	20.167
1365	21.901
1366	22.892
1367	25.77
1368	28.806
1369	29.156
1370	29.032
1371	32.24
1372	35.888
1373	37.862
1374	39.496
1375	39.582
1376	41.127
1377	43.714
1378	42.742
1379	46.632
1380	44.582
1381	47.607
1382	39.035
1383	18.272
1384	34.053
1385	36.111
1386	34.801
1387	36.434
1388	34.994
1389	35.342
1390	34.123
1391	32.472
1392	32.111
1393	30.038
1394	29.834
1395	26.356
1396	24.866
1397	26.902
1398	25.876
1399	23.557
1400	22.382
1401	20.183
1402	18.502
1403	16.904
1404	15.469
1405	14.184
1406	12.249
1407	11.106
1408	9.0738
1409	7.6466
1410	5.9464
1411	4.178
1412	2.266
1413	23.706
1414	2.1595
1415	4.0898
1416	5.7735
1417	7.5515
1418	8.991
1419	10.758
1420	11.982
1421	13.471
1422	15.445
1423	16.679
1424	17.946
1425	19.805
1426	21.054
1427	22.085
1428	23.828
1429	25.19
1430	24.757
1431	25.418
1432	28.284
1433	30.144
1434	30.801
1435	30.842
1436	32.259
1437	33.406
1438	33.819
1439	34.797
1440	34.117
1441	34.241
1442	33.327
1443	17.003
1444	2.3528
1445	4.1294
1446	5.8065
1447	7.5861
1448	9.0019
1449	10.729
1450	12.011
1451	13.323
1452	15.217
1453	16.436
1454	17.455
1455	19.368
1456	20.455
1457	21.537
1458	23.418
1459	24.269
1460	23.894
1461	22.957
1462	24.85
1463	27.073
1464	29.114
1465	27.058
1466	29.973
1467	30.951
1468	30.098
1469	32.251
1470	30.242
1471	30.113
1472	30.462
1473	11.47
1474	2.4563
1475	4.04
1476	5.7166
1477	7.6024
1478	9.1031
1479	10.656
1480	12.064
1481	13.141
1482	15.095
1483	16.327
1484	17.084
1485	19.508
1486	20.207
1487	20.925
1488	23.575
1489	23.576
1490	22.965
1491	23.306
1492	23.489
1493	23.905
1494	28.519
1495	24.531
1496	27.129
1497	28.569
1498	26.687
1499	31.486
1500	29.814
1501	30.297
1502	29.103
1503	24.702
1504	18.029
1505	20.209
1506	19.353
1507	22.802
1508	29.227
1509	33.559
1510	30.055
1511	22.391
1512	25.986
1513	33.818
1514	29.67
1515	30.129
1516	24.909
1517	17.461
1518	20.737
1519	17.033
1520	36.092
1521	37.5
1522	37.367
1523	37.07
1524	36.626
1525	36.334
1526	35.625
1527	32.695
1528	34.239
1529	30.792
1530	31.058
1531	26.986
1532	24.9
1533	26.979
1534	25.909
1535	23.575
1536	22.403
1537	20.191
1538	18.509
1539	16.908
1540	15.472
1541	14.185
1542	12.251
1543	11.107
1544	9.0745
1545	7.6472
1546	5.9468
1547	4.1742
1548	2.1744
1549	19.244
1550	2.1838
1551	4.0758
1552	5.7767
1553	7.5522
1554	8.9918
1555	10.759
1556	11.984
1557	13.473
1558	15.448
1559	16.684
1560	17.955
1561	19.817
1562	21.079
1563	22.11
1564	23.854
1565	25.243
1566	24.877
1567	25.735
1568	28.285
1569	29.206
1570	31.407
1571	30.15
1572	32.421
1573	33.559
1574	33.362
1575	36.254
1576	34.08
1577	33.549
1578	32.519
1579	14.488
1580	2.2623
1581	4.1199
1582	5.8076
1583	7.5868
1584	9.0028
1585	10.731
1586	12.013
1587	13.325
1588	15.221
1589	16.44
1590	17.461
1591	19.378
1592	20.473
1593	21.556
1594	23.436
1595	24.307
1596	23.97
1597	24.619
1598	27.107
1599	27.542
1600	30.384
1601	27.889
1602	30.876
1603	31.939
1604	31.209
1605	34.631
1606	32.634
1607	31.943
1608	30.859
1609	11.64
1610	2.2722
1611	4.0428
1612	5.7167
1613	7.6029
1614	9.1041
1615	10.658
1616	12.066
1617	13.143
1618	15.098
1619	16.331
1620	17.091
1621	19.516
1622	20.22
1623	20.939
1624	23.582
1625	23.607
1626	22.94
1627	23.938
1628	25.767
1629	26.084
1630	29.359
1631	25.382
1632	28.66
1633	30.176
1634	29.08
1635	34.258
1636	31.855
1637	32.107
1638	30.122
1639	17.775
1640	12.771
1641	20.285
1642	28.618
1643	21.141
1644	20.969
1645	36.76
1646	27.494
1647	16.924
1648	23.488
1649	36.445
1650	33.441
1651	34.651
1652	31.759
1653	20.764
1654	18.082
1655	21.056
1656	35.729
1657	36.999
1658	37.136
1659	37.068
1660	36.649
1661	36.348
1662	35.63
1663	32.695
1664	34.228
1665	30.748
1666	31.045
1667	26.984
1668	24.9
1669	26.974
1670	25.906
1671	23.573
1672	22.4
1673	20.189
1674	18.507
1675	16.907
1676	15.471
1677	14.184
1678	12.25
1679	11.106
1680	9.0746
1681	7.6472
1682	5.9491
1683	4.174
1684	2.3085
1685	18.443
1686	2.1557
1687	4.0754
1688	5.7807
1689	7.5523
1690	8.9919
1691	10.758
1692	11.983
1693	13.473
1694	15.447
1695	16.683
1696	17.953
1697	19.815
1698	21.076
1699	22.108
1700	23.851
1701	25.239
1702	24.874
1703	25.729
1704	28.278
1705	29.2
1706	31.407
1707	30.15
1708	32.427
1709	33.575
1710	33.388
1711	36.223
1712	33.767
1713	33.256
1714	32.399
1715	13.209
1716	2.3333
1717	4.1183
1718	5.811
1719	7.587
1720	9.003
1721	10.73
1722	12.013
1723	13.325
1724	15.22
1725	16.44
1726	17.46
1727	19.376
1728	20.471
1729	21.554
1730	23.434
1731	24.304
1732	23.969
1733	24.616
1734	27.105
1735	27.527
1736	30.38
1737	27.891
1738	30.882
1739	31.954
1740	31.222
1741	34.587
1742	32.408
1743	31.794
1744	30.944
1745	10.667
1746	2.4437
1747	4.0484
1748	5.7195
1749	7.6033
1750	9.1042
1751	10.657
1752	12.066
1753	13.143
1754	15.098
1755	16.331
1756	17.09
1757	19.515
1758	20.219
1759	20.938
1760	23.581
1761	23.604
1762	22.941
1763	23.938
1764	25.766
1765	26.053
1766	29.355
1767	25.383
1768	28.663
1769	30.187
1770	29.086
1771	34.242
1772	31.903
1773	31.971
1774	30.335
1775	14.152
1776	13.276
1777	21.001
1778	19.568
1779	19.39
1780	22.453
1781	31.947
1782	26.585
1783	14.802
1784	25.852
1785	33.361
1786	33.102
1787	30.889
1788	18.387
1789	21.826
1790	18.706
1791	21.005
1792	36.621
1793	37.613
1794	37.584
1795	37.301
1796	36.779
1797	36.378
1798	35.616
1799	32.682
1800	34.208
1801	30.66
1802	31.035
1803	27.001
1804	24.9
1805	26.983
1806	25.913
1807	23.576
1808	22.407
1809	20.192
1810	18.51
1811	16.908
1812	15.472
1813	14.185
1814	12.251
1815	11.108
1816	9.0743
1817	7.648
1818	5.9489
1819	4.1733
1820	2.3001
1821	18.701
1822	2.151
1823	4.0739
1824	5.7804
1825	7.5529
1826	8.9916
1827	10.759
1828	11.983
1829	13.473
1830	15.449
1831	16.685
1832	17.956
1833	19.818
1834	21.082
1835	22.112
1836	23.855
1837	25.245
1838	24.877
1839	25.735
1840	28.289
1841	29.147
1842	31.386
1843	30.141
1844	32.452
1845	33.637
1846	33.549
1847	36.47
1848	34.366
1849	33.916
1850	33.036
1851	13.385
1852	2.3281
1853	4.1168
1854	5.8104
1855	7.5873
1856	9.0024
1857	10.731
1858	12.013
1859	13.324
1860	15.221
1861	16.441
1862	17.461
1863	19.378
1864	20.474
1865	21.557
1866	23.437
1867	24.308
1868	23.969
1869	24.61
1870	27.133
1871	27.489
1872	30.373
1873	27.928
1874	30.949
1875	32.078
1876	31.48
1877	34.894
1878	33.066
1879	32.51
1880	31.696
1881	10.888
1882	2.4392
1883	4.0469
1884	5.7187
1885	7.6032
1886	9.1036
1887	10.657
1888	12.065
1889	13.142
1890	15.098
1891	16.331
1892	17.09
1893	19.516
1894	20.221
1895	20.939
1896	23.582
1897	23.607
1898	22.936
1899	23.924
1900	25.704
1901	25.977
1902	29.364
1903	25.475
1904	28.783
1905	30.362
1906	29.401
1907	34.561
1908	32.48
1909	32.738
1910	31.132
1911	20.742
1912	14.976
1913	19.943
1914	26.09
1915	19.106
1916	24.003
1917	30.242
1918	29.379
1919	14.958
1920	29.235
1921	31.8
1922	29.275
1923	26.335
1924	29.748
1925	22.603
1926	24.081
1927	16.323
1928	33.028
1929	35.602
1930	34.36
1931	36.141
1932	34.782
1933	35.21
1934	34.105
1935	32.066
1936	32.491
1937	29.27
1938	28.332
1939	26.628
1940	24.955
1941	25.805
1942	24.388
1943	22.521
1944	21.335
1945	19.645
1946	18.141
1947	16.75
1948	15.34
1949	13.795
1950	12.252
1951	10.918
1952	9.0802
1953	7.56
1954	5.8942
1955	4.1472
1956	2.2143
1957	22.082
1958	2.1417
1959	4.0645
1960	5.7778
1961	7.4908
1962	9.0075
1963	10.806
1964	12.059
1965	13.754
1966	15.323
1967	16.666
1968	18.221
1969	19.199
1970	20.99
1971	21.843
1972	23.572
1973	25.612
1974	25.208
1975	25.96
1976	27.404
1977	29.53
1978	30.784
1979	30.436
1980	32.273
1981	33.247
1982	33.522
1983	34.452
1984	33.682
1985	33.771
1986	32.574
1987	13.795
1988	2.4496
1989	4.159
1990	5.8476
1991	7.5474
1992	8.9662
1993	10.706
1994	11.97
1995	13.343
1996	15.008
1997	16.17
1998	17.388
1999	18.351
2000	19.872
2001	20.742
2002	22.41
2003	24.113
2004	23.541
2005	23.375
2006	25.324
2007	26.832
2008	28.587
2009	27.025
2010	29.928
2011	30.77
2012	30.027
2013	32.046
2014	29.754
2015	29.269
2016	29.031
2017	11.652
2018	2.2415
2019	3.9628
2020	5.6407
2021	7.6026
2022	9.0986
2023	10.421
2024	11.99
2025	12.552
2026	15.069
2027	16.261
2028	16.659
2029	18.208
2030	19.99
2031	20.347
2032	23.06
2033	22.292
2034	22.524
2035	23.354
2036	23.821
2037	24.772
2038	28.219
2039	24.522
2040	26.986
2041	28.334
2042	26.887
2043	31.445
2044	29.361
2045	29.292
2046	27.187
2047	21.245
2048	16.481
2049	24.453
2050	18.971
2051	18.689
2052	23.765
2053	33.578
2054	32.606
2055	22.677
2056	28.422
2057	35.944
2058	33.471
2059	30.829
2060	31.387
2061	21.53
2062	15.032
2063	16.309
2064	32.507
2065	36.602
2066	34.661
2067	34.051
2068	33.759
2069	36.192
2070	33.407
2071	32.422
2072	32.867
2073	30.38
2074	29.827
2075	28.361
2076	24.661
2077	25.954
2078	24.696
2079	22.621
2080	21.457
2081	19.714
2082	18.455
2083	16.804
2084	15.367
2085	13.793
2086	12.285
2087	10.963
2088	9.0962
2089	7.5701
2090	5.8976
2091	4.15
2092	2.2195
2093	17.959
2094	2.146
2095	4.0689
2096	5.7818
2097	7.4987
2098	9.0216
2099	10.851
2100	12.062
2101	13.739
2102	15.353
2103	16.732
2104	18.218
2105	19.272
2106	21.162
2107	21.978
2108	23.973
2109	25.768
2110	24.8
2111	27.562
2112	29.23
2113	30.738
2114	32.693
2115	30.989
2116	31.394
2117	35.745
2118	33.036
2119	33.584
2120	34.35
2121	33.523
2122	30.677
2123	13.463
2124	2.4534
2125	4.16
2126	5.8488
2127	7.5519
2128	8.9831
2129	10.756
2130	11.912
2131	13.351
2132	15.042
2133	16.238
2134	17.269
2135	18.408
2136	19.969
2137	20.807
2138	22.784
2139	24.149
2140	22.998
2141	25.639
2142	26.839
2143	28.132
2144	29.633
2145	27.154
2146	29.687
2147	31.01
2148	30.722
2149	30.773
2150	30.782
2151	30.119
2152	29.089
2153	9.9589
2154	2.2455
2155	3.9603
2156	5.6395
2157	7.6055
2158	9.1099
2159	10.434
2160	11.9
2161	12.629
2162	15.118
2163	16.334
2164	16.899
2165	18.239
2166	20.047
2167	20.384
2168	23.235
2169	22.765
2170	22.26
2171	24.333
2172	26.052
2173	25.942
2174	28.753
2175	24.276
2176	27.635
2177	28.431
2178	30.143
2179	30.31
2180	30.258
2181	30.263
2182	29.341
2183	2.0635
2184	0.72606
2185	1.1581
2186	2.1322
2187	1.1989
2188	0.8185
2189	1.9565
2190	2.4174
2191	1.7025
2192	2.1966
2193	2.1408
2194	1.8963
2195	2.2889
2196	2.4472
2197	2.2148
2198	2.1556
2199	2.2009
2200	2.0342
2201	1.8673
2202	3.2138
2203	2.3821
2204	1.7565
2205	2.2706
2206	2.0407
2207	2.2321
2208	2.7823
2209	2.1239
2210	2.5054
2211	1.9332
2212	1.6409
2213	2.186
2214	2.6352
2215	2.3371
2216	2.032
2217	2.1604
2218	2.4605
2219	1.8755
2220	2.383
2221	1.9832
2222	2.6647
2223	2.2353
2224	15.102
2225	19.979
2226	33.723
2227	36.133
2228	34.744
2229	36.482
2230	34.95
2231	35.326
2232	34.113
2233	32.51
2234	32.232
2235	29.502
2236	28.493
2237	26.686
2238	24.99
2239	25.8
2240	24.429
2241	22.534
2242	21.35
2243	19.653
2244	18.147
2245	16.754
2246	15.344
2247	13.792
2248	12.238
2249	10.939
2250	9.0828
2251	7.5607
2252	5.8959
2253	4.1505
2254	2.219
2255	21.677
2256	2.1467
2257	4.0679
2258	5.7798
2259	7.4918
2260	9.0086
2261	10.79
2262	12.093
2263	13.75
2264	15.328
2265	16.671
2266	18.228
2267	19.209
2268	21.012
2269	21.866
2270	23.579
2271	25.613
2272	25.293
2273	26.092
2274	27.599
2275	29.875
2276	30.909
2277	30.904
2278	32.212
2279	33.363
2280	33.824
2281	34.837
2282	34.273
2283	34.527
2284	32.824
2285	12.927
2286	2.4536
2287	4.1621
2288	5.8495
2289	7.5485
2290	8.9683
2291	10.653
2292	12.025
2293	13.336
2294	15.011
2295	16.174
2296	17.394
2297	18.359
2298	19.887
2299	20.761
2300	22.408
2301	24.105
2302	23.572
2303	23.404
2304	25.407
2305	27.036
2306	28.953
2307	26.892
2308	29.843
2309	30.823
2310	29.963
2311	32.204
2312	30.103
2313	29.89
2314	29.697
2315	11.077
2316	2.2463
2317	3.9654
2318	5.6423
2319	7.6034
2320	9.1031
2321	10.496
2322	11.951
2323	12.547
2324	15.073
2325	16.265
2326	16.665
2327	18.218
2328	20.002
2329	20.361
2330	23.192
2331	22.295
2332	22.514
2333	23.331
2334	23.822
2335	24.737
2336	28.274
2337	24.205
2338	26.871
2339	28.378
2340	26.439
2341	31.397
2342	29.423
2343	29.732
2344	28.697
2345	21.995
2346	17.759
2347	21.427
2348	18.548
2349	21.808
2350	24.843
2351	30.611
2352	28.262
2353	21.661
2354	29.294
2355	32.573
2356	33.234
2357	25.197
2358	24.572
2359	18.632
2360	16.625
2361	17.549
2362	33.122
2363	35.692
2364	34.586
2365	36.179
2366	34.785
2367	35.167
2368	34.015
2369	32.439
2370	32.194
2371	29.458
2372	28.467
2373	26.378
2374	24.858
2375	25.8
2376	24.53
2377	22.522
2378	21.343
2379	19.699
2380	18.119
2381	16.753
2382	15.341
2383	13.795
2384	12.252
2385	10.917
2386	9.0803
2387	7.6055
2388	5.8945
2389	4.14
2390	2.3189
2391	22.705
2392	2.1665
2393	4.0469
2394	5.7819
2395	7.5142
2396	9.014
2397	10.805
2398	12.059
2399	13.753
2400	15.323
2401	16.669
2402	18.178
2403	19.325
2404	21.001
2405	21.842
2406	23.791
2407	25.596
2408	25.033
2409	26.117
2410	27.545
2411	29.835
2412	30.869
2413	30.807
2414	32.116
2415	33.202
2416	33.588
2417	34.539
2418	33.932
2419	33.807
2420	32.178
2421	16.061
2422	2.4569
2423	4.1459
2424	5.8502
2425	7.5622
2426	8.9667
2427	10.706
2428	11.971
2429	13.344
2430	15.009
2431	16.174
2432	17.337
2433	18.392
2434	19.877
2435	20.726
2436	22.677
2437	24.089
2438	23.476
2439	23.921
2440	25.364
2441	26.993
2442	28.931
2443	26.842
2444	29.77
2445	30.722
2446	29.915
2447	32.045
2448	30.143
2449	29.613
2450	29.139
2451	12.34
2452	2.3658
2453	3.9725
2454	5.6421
2455	7.5892
2456	9.0981
2457	10.423
2458	11.991
2459	12.557
2460	15.071
2461	16.265
2462	16.644
2463	18.199
2464	19.992
2465	20.339
2466	23.171
2467	22.687
2468	22.517
2469	23.821
2470	23.794
2471	24.724
2472	28.254
2473	24.195
2474	26.838
2475	28.308
2476	26.516
2477	31.308
2478	29.73
2479	29.974
2480	28.183
2481	18.903
2482	18.382
2483	22.329
2484	27.711
2485	25.758
2486	27.072
2487	31.498
2488	25.634
2489	15.905
2490	24.094
2491	34.315
2492	27.843
2493	31.086
2494	35.786
2495	20.277
2496	14.377
2497	19.382
2498	33.8
2499	36.253
2500	34.942
2501	36.446
2502	34.945
2503	35.268
2504	34.074
2505	32.478
2506	32.664
2507	29.57
2508	28.485
2509	26.383
2510	24.993
2511	25.754
2512	24.538
2513	22.527
2514	21.354
2515	19.705
2516	18.387
2517	16.754
2518	15.341
2519	13.795
2520	12.253
2521	10.935
2522	9.0816
2523	7.5599
2524	5.8979
2525	4.1491
2526	2.3302
2527	20.207
2528	2.1693
2529	4.0571
2530	5.7856
2531	7.4914
2532	9.0074
2533	10.787
2534	12.058
2535	13.753
2536	15.324
2537	16.669
2538	18.113
2539	19.318
2540	21.018
2541	21.85
2542	23.801
2543	25.528
2544	25.248
2545	26.134
2546	27.563
2547	29.825
2548	30.834
2549	30.867
2550	32.172
2551	33.299
2552	33.754
2553	34.817
2554	34.354
2555	34.474
2556	32.798
2557	13.313
2558	2.4613
2559	4.153
2560	5.8536
2561	7.5482
2562	8.9669
2563	10.651
2564	11.974
2565	13.344
2566	15.008
2567	16.179
2568	17.187
2569	18.403
2570	19.888
2571	20.731
2572	22.685
2573	24.012
2574	23.502
2575	23.924
2576	25.361
2577	27.018
2578	28.406
2579	26.97
2580	29.826
2581	30.818
2582	30.055
2583	32.291
2584	30.436
2585	30.101
2586	29.889
2587	10.771
2588	2.369
2589	3.9782
2590	5.6456
2591	7.6034
2592	9.1019
2593	10.494
2594	11.994
2595	12.554
2596	15.07
2597	16.27
2598	16.848
2599	18.194
2600	19.995
2601	20.341
2602	23.171
2603	22.662
2604	22.454
2605	23.817
2606	23.781
2607	24.929
2608	28.097
2609	24.253
2610	26.885
2611	28.405
2612	26.637
2613	31.518
2614	29.877
2615	30.223
2616	28.883
2617	20.938
2618	18.675
2619	18.735
2620	22.519
2621	20.7
2622	23.198
2623	31.538
2624	27.166
2625	15.392
2626	26.502
2627	32.5
2628	33.942
2629	31.959
2630	32.54
2631	20.364
2632	17.213
2633	18.271
2634	34.448
2635	36.568
2636	35.108
2637	36.513
2638	34.973
2639	35.265
2640	34.062
2641	32.593
2642	31.243
2643	29.616
2644	28.314
2645	26.372
2646	24.995
2647	25.754
2648	24.539
2649	22.523
2650	21.344
2651	19.7
2652	18.129
2653	16.776
2654	15.346
2655	13.816
2656	12.263
2657	10.916
2658	9.1055
2659	7.5689
2660	5.8982
2661	4.1431
2662	2.3215
2663	16.866
2664	2.1627
2665	4.0521
2666	5.7851
2667	7.4981
2668	9.0501
2669	10.731
2670	12.12
2671	13.757
2672	15.324
2673	16.694
2674	18.196
2675	19.327
2676	21.003
2677	21.844
2678	23.801
2679	25.529
2680	25.257
2681	26.136
2682	27.441
2683	29.262
2684	31.666
2685	30.826
2686	32.155
2687	33.281
2688	33.75
2689	34.882
2690	34.481
2691	34.788
2692	33.394
2693	14.806
2694	2.4505
2695	4.1492
2696	5.852
2697	7.5523
2698	9.0091
2699	10.604
2700	12.051
2701	13.359
2702	15.027
2703	16.213
2704	17.348
2705	18.387
2706	19.873
2707	20.723
2708	22.684
2709	24.01
2710	23.5
2711	23.883
2712	25.138
2713	27.272
2714	28.552
2715	26.964
2716	29.812
2717	30.821
2718	30.088
2719	32.371
2720	30.594
2721	30.474
2722	30.602
2723	12.696
2724	2.3764
2725	3.9739
2726	5.6428
2727	7.608
2728	9.1088
2729	10.493
2730	11.965
2731	12.608
2732	15.096
2733	16.309
2734	16.648
2735	18.192
2736	19.986
2737	20.331
2738	23.169
2739	22.653
2740	22.441
2741	23.772
2742	23.607
2743	25.45
2744	27.398
2745	24.287
2746	26.862
2747	28.4
2748	26.711
2749	31.595
2750	30.051
2751	30.55
2752	29.649
2753	18.632
2754	16.694
2755	20.479
2756	18.063
2757	18.577
2758	23.048
2759	31.116
2760	33.987
2761	13.966
2762	24.628
2763	32.102
2764	30.845
2765	23.565
2766	31.943
2767	19.033
2768	17.265
2769	19.266
2770	34.773
2771	36.618
2772	35.093
2773	36.494
2774	34.971
2775	35.264
2776	34.058
2777	32.46
2778	32.663
2779	29.401
2780	28.834
2781	26.854
2782	24.966
2783	25.786
2784	24.421
2785	22.53
2786	21.348
2787	19.702
2788	18.122
2789	16.755
2790	15.343
2791	13.793
2792	12.238
2793	10.96
2794	9.079
2795	7.6144
2796	5.8932
2797	4.1465
2798	2.2332
2799	24.536
2800	2.1587
2801	4.0627
2802	5.7777
2803	7.5266
2804	9.0249
2805	10.759
2806	12.094
2807	13.751
2808	15.327
2809	16.672
2810	18.181
2811	19.328
2812	21.007
2813	21.86
2814	23.571
2815	25.599
2816	25.263
2817	26.177
2818	27.924
2819	29.752
2820	30.833
2821	30.839
2822	32.153
2823	33.286
2824	33.748
2825	34.86
2826	34.438
2827	34.857
2828	33.83
2829	17.312
2830	2.4714
2831	4.1564
2832	5.8469
2833	7.5716
2834	8.9934
2835	10.66
2836	12.02
2837	13.337
2838	15.011
2839	16.176
2840	17.34
2841	18.395
2842	19.883
2843	20.756
2844	22.401
2845	24.092
2846	23.543
2847	23.57
2848	25.865
2849	26.842
2850	28.398
2851	26.955
2852	29.817
2853	30.826
2854	30.095
2855	32.351
2856	30.578
2857	30.556
2858	30.846
2859	12.535
2860	2.2686
2861	3.9607
2862	5.6405
2863	7.5904
2864	9.1066
2865	10.389
2866	11.949
2867	12.548
2868	15.074
2869	16.266
2870	16.647
2871	18.204
2872	19.999
2873	20.357
2874	23.186
2875	22.285
2876	22.492
2877	23.027
2878	24.483
2879	24.581
2880	28.087
2881	24.251
2882	26.891
2883	28.417
2884	26.726
2885	31.574
2886	30.043
2887	30.548
2888	29.693
2889	19.241
2890	19.957
2891	18.715
2892	21.522
2893	17.102
2894	22.872
2895	35.287
2896	27.665
2897	13.854
2898	25.285
2899	33.603
2900	28.384
2901	21.856
2902	26.813
2903	23.355
2904	15.616
2905	31.895
2906	16.318
2907	23.402
2908	39.406
2909	18.546
2910	21.182
2911	32.554
2912	18.011
2913	20.253
2914	2.3047
2915	4.1919
2916	5.9712
2917	7.7578
2918	9.3538
2919	10.994
2920	12.579
2921	14.066
2922	15.683
2923	17.568
2924	18.801
2925	20.42
2926	22.065
2927	22.377
2928	26.419
2929	27.203
2930	24.621
2931	29.789
2932	31.825
2933	31.754
2934	35.198
2935	32.663
2936	34.527
2937	37.729
2938	34.557
2939	34.159
2940	34.44
2941	36.335
2942	31.324
2943	16.984
2944	2.1828
2945	4.1097
2946	5.7901
2947	7.6682
2948	9.1597
2949	10.737
2950	12.297
2951	13.649
2952	15.478
2953	16.789
2954	18.265
2955	19.511
2956	20.807
2957	21.411
2958	24.32
2959	25.402
2960	24.597
2961	27.382
2962	28.988
2963	30.304
2964	32.823
2965	30.357
2966	31.81
2967	35.248
2968	33.866
2969	33.563
2970	33.809
2971	32.971
2972	29.764
2973	12.459
2974	2.3703
2975	4.1393
2976	5.8186
2977	7.6973
2978	9.1821
2979	10.718
2980	12.257
2981	13.451
2982	15.252
2983	16.477
2984	17.891
2985	19.18
2986	20.277
2987	20.828
2988	23.763
2989	24.427
2990	23.686
2991	26.229
2992	28.209
2993	28.686
2994	30.982
2995	28.094
2996	30.688
2997	32.469
2998	32.014
2999	30.58
3000	30.289
3001	29.343
3002	28.701
3003	8.9808
3004	2.4666
3005	4.0366
3006	5.7292
3007	7.6931
3008	9.3444
3009	10.733
3010	12.367
3011	13.287
3012	15.192
3013	16.113
3014	17.658
3015	18.899
3016	19.654
3017	20.47
3018	23.689
3019	23.708
3020	22.829
3021	25.204
3022	28.167
3023	27.334
3024	29.99
3025	25.692
3026	28.996
3027	30.497
3028	31.388
3029	30.252
3030	29.951
3031	29.611
3032	28.583
3033	18.755
3034	13.456
3035	17.508
3036	25.522
3037	26.32
3038	34.192
3039	27.142
3040	1.8806
3041	2.6506
3042	1.9186
3043	1.9087
3044	1.9513
3045	1.7702
3046	2.5418
3047	2.9003
3048	2.2087
3049	2.1247
3050	1.9389
3051	1.9522
3052	1.9646
3053	3.2881
3054	2.4436
3055	1.6315
3056	1.9762
3057	1.9134
3058	2.1794
3059	2.5202
3060	1.9539
3061	2.1597
3062	2.3072
3063	2.1014
3064	2.3085
3065	2.6976
3066	2.3545
3067	1.8177
3068	2.5565
3069	2.6249
3070	2.0842
3071	2.1315
3072	1.9342
3073	2.4972
3074	2.1295
3075	16.591
3076	20.328
3077	18.744
3078	18.117
3079	22.368
3080	24.349
3081	38.428
3082	27.431
3083	32.441
3084	13.584
3085	22.004
3086	38.547
3087	26.584
3088	25.635
3089	18.803
3090	22.625
3091	25.985
3092	25.64
3093	24.205
3094	21.191
3095	24.027
3096	25.962
3097	24.356
3098	23.948
3099	22.237
3100	20.648
3101	22.606
3102	22.447
3103	23.198
3104	23.784
3105	22.196
3106	20.206
3107	22.689
3108	23.988
3109	22.922
3110	23.172
3111	21.761
3112	21.281
3113	24.256
3114	23.005
3115	25.098
3116	20.367
3117	24.
3118	21.815
3119	23.885
3120	22.452
3121	24.61
3122	22.381
3123	24.033
3124	22.374
3125	25.692
3126	23.303
3127	24.99
3128	22.855
3129	21.001
3130	18.798
3131	12.17
3132	9.2958
3133	6.9851
3134	3.9701
3135	3.9879
3136	6.7464
3137	9.3714
3138	11.177
3139	18.618
3140	20.279
3141	22.948
3142	23.545
3143	21.04
3144	24.093
3145	24.227
3146	24.942
3147	21.65
3148	21.156
3149	22.244
3150	22.204
3151	22.829
3152	23.5
3153	22.407
3154	22.083
3155	20.412
3156	24.803
3157	23.435
3158	24.449
3159	22.944
3160	21.653
3161	20.838
3162	22.046
3163	22.419
3164	22.022
3165	21.348
3166	23.006
3167	22.471
3168	23.66
3169	24.417
3170	24.669
3171	23.571
3172	25.312
3173	22.736
3174	23.26
3175	21.369
3176	24.395
3177	24.324
3178	25.249
3179	19.931
3180	22.357
3181	26.017
3182	25.459
3183	25.731
3184	19.834
3185	20.46
3186	24.565
3187	25.878
3188	27.422
3189	22.404
3190	23.774
3191	21.275
3192	24.786
3193	24.611
3194	24.181
3195	21.218
3196	17.899
3197	23.313
3198	25.207
3199	26.204
3200	23.867
3201	17.859
3202	20.266
3203	25.588
3204	26.306
3205	24.072
3206	23.106
3207	20.213
3208	24.469
3209	26.096
3210	25.37
3211	19.203
3212	21.496
3213	23.719
3214	26.879
3215	24.48
3216	24.474
3217	21.147
3218	24.023
3219	28.005
3220	24.414
3221	22.38
3222	17.962
3223	21.044
3224	25.104
3225	26.259
3226	23.142
3227	18.508
3228	20.19
3229	24.239
3230	27.666
3231	24.289
3232	23.189
3233	18.02
3234	20.748
3235	26.232
3236	24.783
3237	23.602
3238	20.187
3239	21.405
3240	24.027
3241	26.393
3242	25.264
3243	18.72
3244	20.534
3245	14.267
3246	20.107
3247	14.525
3248	20.184
3249	16.206
3250	16.442
3251	11.896
3252	12.69
3253	16.566
3254	17.085
3255	14.249
3256	12.308
3257	11.467
3258	13.376
3259	17.022
3260	16.824
3261	14.517
3262	12.928
3263	12.801
3264	14.53
3265	15.438
3266	14.754
3267	14.438
3268	12.5
3269	11.991
3270	16.089
3271	16.531
3272	13.382
3273	13.153
3274	13.63
3275	15.648
3276	17.895
3277	18.093
3278	12.599
3279	12.322
3280	13.527
3281	17.687
3282	15.965
3283	11.283
3284	13.851
3285	15.137
3286	15.255
3287	15.263
3288	13.994
3289	13.586
3290	12.316
3291	14.967
3292	19.038
3293	17.502
3294	11.869
3295	13.578
3296	14.523
3297	16.172
3298	14.408
3299	13.816
3300	12.58
3301	11.794
3302	14.238
3303	16.371
3304	12.625
3305	12.257
3306	11.735
3307	16.727
3308	21.132
3309	15.193
3310	13.241
3311	13.199
3312	13.074
3313	9.0965
3314	8.6165
3315	8.1683
3316	7.2653
3317	7.9471
3318	8.3605
3319	7.7595
3320	6.8186
3321	7.8547
3322	7.9481
3323	7.5185
3324	8.6259
3325	8.7076
3326	7.3928
3327	9.6727
3328	7.9314
3329	0.90464
3330	4.0506
3331	1.0366
3332	0.86453
3333	1.1769
3334	1.1487
3335	0.65335
3336	0.73976
3337	1.3686
3338	1.5544
3339	1.1957
3340	0.96003
3341	4.131
3342	1.1036
3343	1.4762
3344	1.2739
3345	0.59725
3346	0.89022
3347	1.0428
3348	0.96643
3349	7.657
3350	6.7913
3351	7.1227
3352	7.0686
3353	7.3134
3354	6.6592
3355	7.2712
3356	8.1583
3357	0.97569
3358	0.99322
3359	1.4074
3360	0.88081
3361	1.1833
3362	1.0473
3363	0.88344
3364	1.2874
3365	0.95625
3366	2.2242
3367	4.3482
3368	5.3525
3369	6.0949
3370	3.817
3371	1.1178
3372	0.93802
3373	0.12199
3374	0.85095
3375	0.53249
3376	0.19834
3377	0.19827
3378	0.66028
3379	0.57742
3380	0.17267
3381	0.73925
3382	0.44058
3383	0.17359
3384	0.11877
3385	0.6535
3386	0.53124
3387	0.11399
3388	0.81654
3389	0.49942
3390	0.14986
3391	0.16474
3392	0.6556
3393	0.55167
3394	0.17492
3395	0.82325
3396	0.45651
3397	0.18228
3398	0.14349
3399	0.65923
3400	0.57788
3401	0.17059
3402	0.75067
3403	0.49461
3404	0.17613
3405	0.12366
3406	0.64602
3407	0.48865
3408	0.16921
3409	0.10914
3410	0.18596
3411	0.1231
3412	0.65139
3413	0.54493
3414	0.63685
3415	0.52678
3416	0.15561
3417	0.23937
3418	0.14107
3419	0.76364
3420	0.55772
3421	0.70403
3422	0.50782
3423	0.12352
3424	0.1868
3425	0.12793
3426	0.61448
3427	0.44783
3428	0.70371
3429	0.51547
3430	0.16268
3431	0.2212
3432	0.14325
3433	0.77523
3434	0.55544
3435	0.69893
3436	0.54629
3437	0.17246
3438	0.17892
3439	0.19111
3440	0.76203
3441	0.53301
3442	0.6598
3443	0.54966
3444	0.15724
3445	0.6954
3446	0.57422
3447	0.17232
3448	0.84116
3449	0.44962
3450	0.75359
3451	0.49711
3452	0.15532
3453	0.1099
3454	0.63821
3455	0.5234
3456	38.011
3457	34.797
3458	35.825
3459	36.466
3460	34.149
3461	35.512
3462	34.397
3463	34.73
3464	31.879
3465	30.555
3466	28.689
3467	25.98
3468	28.442
3469	26.73
3470	24.813
3471	22.782
3472	21.062
3473	20.412
3474	19.987
3475	17.429
3476	16.089
3477	15.455
3478	13.119
3479	11.734
3480	9.8995
3481	8.3652
3482	6.8844
3483	5.0901
3484	3.1353
3485	1.4133
3486	0.7249
3487	1.3673
3488	0.72811
3489	3.1962
3490	4.9109
3491	6.6889
3492	8.2905
3493	9.6722
3494	11.521
3495	12.901
3496	14.76
3497	15.733
3498	16.983
3499	18.854
3500	19.63
3501	20.66
3502	22.541
3503	24.542
3504	25.569
3505	26.024
3506	25.081
3507	27.814
3508	30.535
3509	32.272
3510	31.72
3511	33.806
3512	34.596
3513	34.004
3514	34.841
3515	33.874
3516	32.253
3517	35.569
3518	36.964
3519	1.4101
3520	0.71853
3521	3.2403
3522	4.9401
3523	6.7014
3524	8.2756
3525	9.6717
3526	11.475
3527	12.717
3528	14.685
3529	15.602
3530	16.766
3531	18.482
3532	19.134
3533	20.045
3534	21.613
3535	23.702
3536	24.252
3537	24.533
3538	24.155
3539	25.75
3540	27.976
3541	29.501
3542	28.835
3543	30.521
3544	30.96
3545	31.497
3546	31.03
3547	31.
3548	29.448
3549	31.833
3550	33.591
3551	1.4043
3552	0.75042
3553	3.2573
3554	4.8629
3555	6.6554
3556	8.4223
3557	9.7301
3558	11.581
3559	12.547
3560	14.573
3561	15.752
3562	16.89
3563	18.348
3564	18.857
3565	19.318
3566	20.973
3567	22.954
3568	23.614
3569	24.65
3570	21.46
3571	22.885
3572	25.164
3573	28.364
3574	26.487
3575	29.956
3576	29.016
3577	31.817
3578	27.276
3579	28.62
3580	27.13
3581	29.535
3582	18.042
3583	19.446
3584	36.567
3585	33.499
3586	38.467
3587	34.615
3588	35.651
3589	36.28
3590	35.568
3591	34.883
3592	32.728
3593	33.446
3594	28.464
3595	26.655
3596	28.552
3597	26.757
3598	24.844
3599	22.79
3600	21.075
3601	20.423
3602	19.994
3603	17.433
3604	16.092
3605	15.458
3606	13.12
3607	11.736
3608	9.9002
3609	8.3658
3610	6.8851
3611	5.093
3612	3.1262
3613	1.4624
3614	0.92378
3615	1.3168
3616	0.83758
3617	3.1645
3618	4.913
3619	6.6895
3620	8.2912
3621	9.6733
3622	11.523
3623	12.903
3624	14.763
3625	15.738
3626	16.99
3627	18.863
3628	19.643
3629	20.677
3630	22.561
3631	24.591
3632	25.621
3633	26.157
3634	26.376
3635	28.252
3636	30.762
3637	32.201
3638	31.773
3639	33.932
3640	34.207
3641	34.607
3642	34.501
3643	34.851
3644	32.526
3645	32.399
3646	34.592
3647	1.3573
3648	0.76638
3649	3.217
3650	4.9428
3651	6.7019
3652	8.2764
3653	9.6729
3654	11.477
3655	12.72
3656	14.688
3657	15.606
3658	16.771
3659	18.489
3660	19.144
3661	20.057
3662	21.621
3663	23.728
3664	24.266
3665	25.419
3666	25.012
3667	26.848
3668	29.158
3669	30.227
3670	29.155
3671	31.969
3672	32.21
3673	33.364
3674	33.145
3675	31.902
3676	30.46
3677	31.297
3678	29.562
3679	1.4781
3680	0.80703
3681	3.2371
3682	4.8683
3683	6.6554
3684	8.4231
3685	9.7314
3686	11.583
3687	12.549
3688	14.576
3689	15.756
3690	16.895
3691	18.354
3692	18.865
3693	19.329
3694	20.974
3695	22.961
3696	23.607
3697	24.985
3698	23.461
3699	26.044
3700	27.367
3701	28.98
3702	27.085
3703	31.047
3704	30.19
3705	32.685
3706	32.214
3707	29.108
3708	28.675
3709	28.244
3710	16.118
3711	18.223
3712	36.783
3713	33.303
3714	37.973
3715	34.528
3716	35.654
3717	36.304
3718	35.576
3719	34.882
3720	32.725
3721	33.407
3722	28.448
3723	26.651
3724	28.547
3725	26.755
3726	24.841
3727	22.79
3728	21.074
3729	20.422
3730	19.993
3731	17.433
3732	16.092
3733	15.456
3734	13.12
3735	11.735
3736	9.9001
3737	8.3659
3738	6.8859
3739	5.0973
3740	3.1073
3741	1.3969
3742	0.71737
3743	1.334
3744	0.71443
3745	3.179
3746	4.9186
3747	6.6907
3748	8.2912
3749	9.6731
3750	11.522
3751	12.902
3752	14.762
3753	15.737
3754	16.988
3755	18.861
3756	19.642
3757	20.675
3758	22.56
3759	24.587
3760	25.618
3761	26.154
3762	26.368
3763	28.269
3764	30.727
3765	32.185
3766	31.774
3767	33.943
3768	34.232
3769	34.609
3770	34.384
3771	34.349
3772	32.313
3773	32.51
3774	34.707
3775	1.3831
3776	0.70641
3777	3.2181
3778	4.9483
3779	6.7033
3780	8.2767
3781	9.6728
3782	11.476
3783	12.719
3784	14.687
3785	15.605
3786	16.77
3787	18.488
3788	19.143
3789	20.056
3790	21.62
3791	23.725
3792	24.264
3793	25.417
3794	25.008
3795	26.862
3796	29.146
3797	30.22
3798	29.158
3799	31.98
3800	32.231
3801	33.355
3802	33.013
3803	31.673
3804	30.531
3805	31.306
3806	28.939
3807	1.4586
3808	0.73893
3809	3.2328
3810	4.8752
3811	6.6561
3812	8.4235
3813	9.7314
3814	11.582
3815	12.549
3816	14.576
3817	15.755
3818	16.894
3819	18.354
3820	18.865
3821	19.328
3822	20.974
3823	22.96
3824	23.607
3825	24.984
3826	23.46
3827	26.029
3828	27.377
3829	28.978
3830	27.088
3831	31.051
3832	30.202
3833	32.68
3834	32.138
3835	29.095
3836	28.928
3837	28.21
3838	13.814
3839	22.31
3840	37.892
3841	33.944
3842	38.599
3843	34.947
3844	35.883
3845	36.401
3846	35.581
3847	34.859
3848	32.716
3849	33.413
3850	28.386
3851	26.446
3852	28.559
3853	26.758
3854	24.846
3855	22.79
3856	21.075
3857	20.424
3858	19.996
3859	17.434
3860	16.093
3861	15.459
3862	13.12
3863	11.736
3864	9.9001
3865	8.3659
3866	6.8862
3867	5.0967
3868	3.1058
3869	1.4343
3870	0.675
3871	1.3714
3872	0.68922
3873	3.1753
3874	4.9178
3875	6.691
3876	8.2914
3877	9.673
3878	11.523
3879	12.903
3880	14.765
3881	15.738
3882	16.991
3883	18.864
3884	19.644
3885	20.678
3886	22.563
3887	24.594
3888	25.622
3889	26.163
3890	26.306
3891	28.266
3892	30.725
3893	32.166
3894	31.788
3895	33.938
3896	34.343
3897	34.839
3898	34.788
3899	35.039
3900	32.835
3901	33.636
3902	35.878
3903	1.4041
3904	0.67477
3905	3.2148
3906	4.9473
3907	6.7032
3908	8.2763
3909	9.6723
3910	11.476
3911	12.719
3912	14.689
3913	15.606
3914	16.771
3915	18.489
3916	19.144
3917	20.056
3918	21.62
3919	23.729
3920	24.265
3921	25.425
3922	24.953
3923	26.861
3924	29.141
3925	30.224
3926	29.238
3927	32.048
3928	32.413
3929	33.63
3930	33.484
3931	32.473
3932	31.141
3933	32.413
3934	29.897
3935	1.373
3936	0.73848
3937	3.2303
3938	4.874
3939	6.6558
3940	8.4228
3941	9.7306
3942	11.582
3943	12.549
3944	14.576
3945	15.755
3946	16.895
3947	18.354
3948	18.864
3949	19.328
3950	20.973
3951	22.96
3952	23.604
3953	24.984
3954	23.268
3955	26.004
3956	27.364
3957	29.002
3958	27.215
3959	31.169
3960	30.445
3961	32.959
3962	32.616
3963	29.954
3964	29.629
3965	29.011
3966	15.32
3967	20.317
3968	36.228
3969	34.156
3970	35.308
3971	36.118
3972	33.937
3973	35.336
3974	34.29
3975	34.69
3976	31.961
3977	30.798
3978	27.736
3979	26.844
3980	26.571
3981	25.789
3982	24.438
3983	22.474
3984	20.902
3985	20.428
3986	19.24
3987	17.269
3988	15.993
3989	14.841
3990	13.061
3991	11.643
3992	9.8688
3993	8.3499
3994	6.8397
3995	5.0505
3996	3.1318
3997	1.4973
3998	0.95559
3999	1.3476
4000	0.86501
4001	3.1473
4002	4.9329
4003	6.7053
4004	8.2815
4005	9.7459
4006	11.492
4007	12.948
4008	14.532
4009	15.872
4010	17.097
4011	18.779
4012	20.408
4013	21.078
4014	22.99
4015	24.882
4016	25.326
4017	26.012
4018	26.34
4019	27.842
4020	31.051
4021	31.695
4022	31.805
4023	33.739
4024	34.332
4025	33.68
4026	34.466
4027	33.34
4028	31.587
4029	33.513
4030	34.896
4031	1.4892
4032	0.82295
4033	3.2706
4034	4.9802
4035	6.7459
4036	8.2598
4037	9.6942
4038	11.402
4039	12.695
4040	14.351
4041	15.468
4042	16.508
4043	17.7
4044	19.209
4045	19.977
4046	21.433
4047	23.403
4048	23.999
4049	24.409
4050	23.91
4051	25.981
4052	28.098
4053	28.691
4054	28.869
4055	30.408
4056	30.798
4057	31.321
4058	30.763
4059	30.306
4060	28.366
4061	30.622
4062	31.24
4063	1.3186
4064	0.78608
4065	3.2014
4066	4.7539
4067	6.5975
4068	8.4521
4069	9.6362
4070	11.552
4071	12.432
4072	14.308
4073	15.756
4074	16.907
4075	17.819
4076	18.085
4077	18.563
4078	19.961
4079	21.667
4080	23.404
4081	24.24
4082	21.19
4083	25.924
4084	24.58
4085	27.845
4086	26.401
4087	29.749
4088	29.026
4089	31.795
4090	27.207
4091	27.786
4092	25.54
4093	27.127
4094	18.277
4095	18.529
4096	36.567
4097	34.577
4098	33.788
4099	35.724
4100	34.213
4101	35.286
4102	35.71
4103	34.378
4104	31.277
4105	32.433
4106	28.802
4107	28.136
4108	26.749
4109	25.892
4110	24.987
4111	22.547
4112	20.991
4113	20.516
4114	19.243
4115	17.383
4116	16.033
4117	14.846
4118	13.115
4119	11.686
4120	9.8947
4121	8.3586
4122	6.8459
4123	5.0533
4124	3.1375
4125	1.5007
4126	0.956
4127	1.3505
4128	0.8664
4129	3.1533
4130	4.9365
4131	6.7123
4132	8.2934
4133	9.7814
4134	11.559
4135	13.
4136	14.544
4137	15.919
4138	17.295
4139	18.688
4140	20.54
4141	21.2
4142	23.149
4143	25.158
4144	25.568
4145	25.942
4146	28.633
4147	29.069
4148	32.485
4149	31.924
4150	31.285
4151	34.447
4152	34.361
4153	32.519
4154	33.564
4155	33.635
4156	33.327
4157	32.409
4158	32.975
4159	1.4923
4160	0.82446
4161	3.274
4162	4.9807
4163	6.7496
4164	8.2695
4165	9.732
4166	11.433
4167	12.724
4168	14.37
4169	15.518
4170	16.709
4171	17.593
4172	19.283
4173	20.043
4174	21.503
4175	23.466
4176	23.875
4177	24.188
4178	26.195
4179	27.349
4180	29.137
4181	29.287
4182	28.777
4183	31.198
4184	31.294
4185	30.168
4186	30.561
4187	30.962
4188	30.099
4189	30.347
4190	29.442
4191	1.3209
4192	0.78659
4193	3.2005
4194	4.7536
4195	6.5978
4196	8.4558
4197	9.6463
4198	11.542
4199	12.436
4200	14.364
4201	15.819
4202	16.957
4203	17.846
4204	18.081
4205	18.588
4206	19.898
4207	22.353
4208	23.143
4209	23.149
4210	23.592
4211	27.098
4212	25.563
4213	29.24
4214	27.403
4215	29.308
4216	29.781
4217	30.111
4218	27.816
4219	31.734
4220	28.303
4221	27.155
4222	37.117
4223	34.566
4224	35.859
4225	36.498
4226	34.062
4227	35.476
4228	34.379
4229	34.824
4230	31.894
4231	30.938
4232	27.891
4233	26.928
4234	26.64
4235	25.811
4236	24.528
4237	22.491
4238	20.916
4239	20.438
4240	19.246
4241	17.274
4242	15.997
4243	14.842
4244	13.045
4245	11.654
4246	9.8781
4247	8.3518
4248	6.8407
4249	5.0528
4250	3.1361
4251	1.5013
4252	1.0126
4253	1.3571
4254	0.888
4255	3.1511
4256	4.9356
4257	6.7068
4258	8.284
4259	9.7543
4260	11.482
4261	12.954
4262	14.533
4263	15.878
4264	17.104
4265	18.787
4266	20.423
4267	21.095
4268	23.016
4269	24.938
4270	25.398
4271	26.091
4272	26.45
4273	28.087
4274	31.285
4275	32.408
4276	31.713
4277	33.822
4278	34.58
4279	33.966
4280	34.933
4281	33.899
4282	31.884
4283	34.132
4284	35.436
4285	1.4999
4286	0.88081
4287	3.2741
4288	4.9828
4289	6.747
4290	8.2621
4291	9.7052
4292	11.383
4293	12.706
4294	14.351
4295	15.472
4296	16.513
4297	17.706
4298	19.22
4299	19.991
4300	21.453
4301	23.391
4302	24.031
4303	24.442
4304	23.925
4305	26.129
4306	28.082
4307	29.456
4308	28.67
4309	30.424
4310	30.835
4311	31.388
4312	30.931
4313	30.781
4314	28.814
4315	31.811
4316	31.32
4317	1.3284
4318	0.84618
4319	3.2037
4320	4.7566
4321	6.5982
4322	8.4538
4323	9.6528
4324	11.559
4325	12.417
4326	14.311
4327	15.76
4328	16.911
4329	17.825
4330	18.092
4331	18.577
4332	19.968
4333	21.867
4334	23.4
4335	24.247
4336	21.133
4337	26.04
4338	24.409
4339	28.165
4340	26.213
4341	29.798
4342	28.824
4343	31.702
4344	26.958
4345	28.137
4346	26.302
4347	28.998
4348	14.97
4349	20.888
4350	36.408
4351	34.039
4352	35.536
4353	36.198
4354	33.965
4355	35.311
4356	34.236
4357	34.712
4358	31.859
4359	30.891
4360	27.87
4361	27.063
4362	26.554
4363	26.1
4364	24.818
4365	22.461
4366	20.904
4367	20.431
4368	19.107
4369	17.275
4370	15.994
4371	14.841
4372	13.061
4373	11.642
4374	9.869
4375	8.3504
4376	6.8338
4377	5.0541
4378	3.1014
4379	1.4046
4380	0.84925
4381	1.2993
4382	0.76669
4383	3.1251
4384	4.937
4385	6.7005
4386	8.275
4387	9.7467
4388	11.491
4389	12.947
4390	14.532
4391	15.874
4392	17.107
4393	18.804
4394	20.406
4395	21.083
4396	22.99
4397	24.906
4398	25.321
4399	25.958
4400	26.68
4401	28.045
4402	31.218
4403	32.342
4404	31.624
4405	33.631
4406	34.363
4407	33.788
4408	34.589
4409	33.668
4410	31.242
4411	33.587
4412	35.718
4413	1.5341
4414	0.72233
4415	3.2472
4416	4.9846
4417	6.7487
4418	8.2714
4419	9.6943
4420	11.402
4421	12.696
4422	14.352
4423	15.47
4424	16.516
4425	17.946
4426	19.189
4427	19.975
4428	21.422
4429	23.337
4430	23.501
4431	24.31
4432	23.916
4433	26.103
4434	28.045
4435	29.412
4436	28.632
4437	30.302
4438	30.736
4439	31.307
4440	30.873
4441	30.843
4442	28.418
4443	31.261
4444	32.543
4445	1.4313
4446	0.77177
4447	3.1931
4448	4.7633
4449	6.5983
4450	8.4449
4451	9.6374
4452	11.552
4453	12.434
4454	14.31
4455	15.759
4456	16.907
4457	17.935
4458	18.083
4459	18.558
4460	19.921
4461	22.321
4462	22.977
4463	24.224
4464	21.052
4465	25.989
4466	24.402
4467	28.144
4468	26.207
4469	29.725
4470	28.817
4471	31.636
4472	27.187
4473	28.568
4474	26.194
4475	28.254
4476	15.207
4477	17.966
4478	37.53
4479	34.596
4480	36.046
4481	36.522
4482	34.14
4483	35.44
4484	34.318
4485	34.763
4486	31.681
4487	31.021
4488	27.945
4489	27.075
4490	26.561
4491	25.806
4492	24.831
4493	22.465
4494	20.91
4495	20.444
4496	19.061
4497	17.328
4498	15.995
4499	14.842
4500	13.06
4501	11.654
4502	9.8764
4503	8.3512
4504	6.8407
4505	5.0586
4506	3.1136
4507	1.4143
4508	0.83968
4509	1.2946
4510	0.79367
4511	3.1368
4512	4.9427
4513	6.7082
4514	8.2832
4515	9.7515
4516	11.496
4517	12.947
4518	14.533
4519	15.873
4520	17.217
4521	18.636
4522	20.426
4523	21.092
4524	22.998
4525	24.921
4526	25.383
4527	25.969
4528	26.693
4529	28.05
4530	31.409
4531	31.894
4532	31.682
4533	33.719
4534	34.498
4535	33.974
4536	34.914
4537	34.142
4538	31.78
4539	34.757
4540	36.349
4541	1.515
4542	0.72982
4543	3.2557
4544	4.9892
4545	6.7481
4546	8.2613
4547	9.7021
4548	11.399
4549	12.696
4550	14.352
4551	15.467
4552	16.65
4553	17.802
4554	19.203
4555	19.98
4556	21.425
4557	23.34
4558	23.911
4559	24.281
4560	23.916
4561	26.09
4562	28.24
4563	29.271
4564	28.679
4565	30.382
4566	30.862
4567	31.482
4568	31.127
4569	31.193
4570	28.902
4571	32.406
4572	32.366
4573	1.3982
4574	0.6998
4575	3.1967
4576	4.7696
4577	6.5986
4578	8.4534
4579	9.6517
4580	11.556
4581	12.433
4582	14.309
4583	15.757
4584	16.919
4585	17.961
4586	18.082
4587	18.561
4588	19.919
4589	22.318
4590	23.181
4591	24.214
4592	21.042
4593	26.059
4594	24.475
4595	28.217
4596	26.242
4597	29.796
4598	28.927
4599	31.809
4600	27.351
4601	28.721
4602	26.581
4603	29.752
4604	17.943
4605	21.362
4606	38.156
4607	35.057
4608	36.271
4609	36.63
4610	34.186
4611	35.465
4612	34.302
4613	34.682
4614	31.592
4615	32.789
4616	27.514
4617	27.05
4618	26.567
4619	25.807
4620	24.832
4621	22.462
4622	20.902
4623	20.431
4624	19.111
4625	17.299
4626	16.007
4627	14.845
4628	13.063
4629	11.67
4630	9.885
4631	8.3589
4632	6.8453
4633	5.0567
4634	3.108
4635	1.4401
4636	0.80858
4637	1.2734
4638	0.79009
4639	3.1261
4640	4.9408
4641	6.7126
4642	8.2969
4643	9.7273
4644	11.498
4645	12.976
4646	14.53
4647	15.884
4648	17.14
4649	18.811
4650	20.408
4651	21.083
4652	22.995
4653	24.923
4654	25.384
4655	25.98
4656	26.651
4657	27.773
4658	32.573
4659	31.218
4660	31.631
4661	33.678
4662	34.509
4663	34.001
4664	34.997
4665	34.344
4666	32.247
4667	35.651
4668	37.606
4669	1.5462
4670	0.75829
4671	3.2501
4672	4.9865
4673	6.7502
4674	8.2701
4675	9.6847
4676	11.406
4677	12.732
4678	14.364
4679	15.5
4680	16.55
4681	17.946
4682	19.184
4683	19.969
4684	21.421
4685	23.339
4686	23.909
4687	24.277
4688	23.818
4689	25.771
4690	29.672
4691	28.664
4692	28.645
4693	30.356
4694	30.885
4695	31.535
4696	31.238
4697	31.424
4698	29.423
4699	33.553
4700	34.608
4701	1.4432
4702	0.83541
4703	3.1984
4704	4.7642
4705	6.5979
4706	8.455
4707	9.7413
4708	11.571
4709	12.43
4710	14.346
4711	15.804
4712	16.924
4713	17.931
4714	18.071
4715	18.545
4716	19.911
4717	22.312
4718	23.174
4719	24.202
4720	20.949
4721	25.842
4722	25.866
4723	28.239
4724	26.244
4725	29.776
4726	28.955
4727	31.874
4728	27.486
4729	28.948
4730	27.132
4731	30.812
4732	18.224
4733	18.965
4734	38.574
4735	35.315
4736	36.27
4737	36.607
4738	34.185
4739	35.461
4740	34.297
4741	34.741
4742	31.67
4743	31.018
4744	27.834
4745	26.4
4746	26.628
4747	25.798
4748	24.518
4749	22.486
4750	20.912
4751	20.434
4752	19.109
4753	17.277
4754	15.997
4755	14.842
4756	13.047
4757	11.638
4758	9.8775
4759	8.3183
4760	6.834
4761	5.0499
4762	3.1319
4763	1.4899
4764	0.93767
4765	1.3338
4766	0.84924
4767	3.1543
4768	4.9318
4769	6.6999
4770	8.2516
4771	9.7197
4772	11.468
4773	12.957
4774	14.533
4775	15.877
4776	17.11
4777	18.807
4778	20.411
4779	21.091
4780	23.01
4781	24.926
4782	25.381
4783	26.075
4784	26.369
4785	28.338
4786	31.368
4787	31.883
4788	31.664
4789	33.68
4790	34.51
4791	33.999
4792	34.968
4793	34.334
4794	32.571
4795	35.878
4796	38.274
4797	1.4935
4798	0.80277
4799	3.2733
4800	4.9791
4801	6.7481
4802	8.2249
4803	9.6931
4804	11.378
4805	12.708
4806	14.352
4807	15.473
4808	16.518
4809	17.949
4810	19.194
4811	19.988
4812	21.448
4813	23.381
4814	24.012
4815	24.43
4816	24.235
4817	26.018
4818	28.185
4819	29.255
4820	28.68
4821	30.367
4822	30.891
4823	31.536
4824	31.223
4825	31.433
4826	29.681
4827	33.529
4828	35.032
4829	1.2787
4830	0.74931
4831	3.1948
4832	4.7536
4833	6.5985
4834	8.4067
4835	9.736
4836	11.541
4837	12.417
4838	14.312
4839	15.76
4840	16.908
4841	17.937
4842	18.087
4843	18.573
4844	19.965
4845	21.86
4846	23.387
4847	24.237
4848	22.72
4849	25.579
4850	24.426
4851	28.204
4852	26.253
4853	29.801
4854	28.966
4855	31.87
4856	27.478
4857	28.936
4858	27.232
4859	30.401
4860	20.328
4861	21.447
4862	18.735
4863	1.3986
4864	0.66624
4865	3.165
4866	5.1144
4867	6.9525
4868	8.446
4869	10.076
4870	11.912
4871	13.282
4872	14.847
4873	16.2
4874	18.377
4875	19.022
4876	20.61
4877	21.736
4878	22.997
4879	24.968
4880	26.787
4881	29.166
4882	28.485
4883	29.532
4884	35.299
4885	32.137
4886	34.643
4887	36.737
4888	37.268
4889	35.44
4890	35.77
4891	33.146
4892	33.869
4893	35.525
4894	1.3409
4895	0.68003
4896	3.2227
4897	4.9327
4898	6.7314
4899	8.4355
4900	9.9177
4901	11.447
4902	13.064
4903	14.614
4904	15.611
4905	17.727
4906	18.437
4907	19.998
4908	21.437
4909	22.4
4910	24.859
4911	25.641
4912	26.038
4913	28.063
4914	29.62
4915	31.946
4916	32.114
4917	31.618
4918	34.109
4919	35.022
4920	32.339
4921	33.665
4922	32.751
4923	32.585
4924	31.579
4925	32.213
4926	1.3914
4927	0.66864
4928	3.2594
4929	4.9532
4930	6.7495
4931	8.4073
4932	9.8978
4933	11.386
4934	12.814
4935	14.499
4936	15.416
4937	17.236
4938	17.97
4939	19.487
4940	20.891
4941	21.52
4942	23.853
4943	24.192
4944	25.284
4945	26.67
4946	28.491
4947	30.166
4948	30.384
4949	29.468
4950	32.44
4951	33.204
4952	31.519
4953	30.672
4954	30.191
4955	29.043
4956	29.347
4957	28.591
4958	1.457
4959	0.74937
4960	3.2637
4961	4.8735
4962	6.7121
4963	8.5096
4964	9.8493
4965	11.289
4966	12.501
4967	14.556
4968	15.408
4969	16.875
4970	17.79
4971	19.284
4972	20.542
4973	20.915
4974	22.964
4975	23.579
4976	24.473
4977	25.82
4978	27.332
4979	28.462
4980	29.568
4981	28.331
4982	30.772
4983	31.323
4984	31.17
4985	27.482
4986	31.51
4987	27.174
4988	26.068
4989	14.478
4990	14.871
4991	25.484
4992	6.4553
4993	7.1839
4994	7.5085
4995	7.6011
4996	6.4102
4997	5.5222
4998	10.237
4999	11.314
5000	12.475
5001	12.087
5002	7.3525
5003	13.473
5004	16.739
5005	15.771
5006	18.129
5007	15.834
5008	17.011
5009	6.9806
5010	7.7804
5011	9.1539
5012	7.3945
5013	7.1957
5014	15.489
5015	11.43
5016	9.1204
5017	9.3212
5018	8.9283
5019	9.8772
5020	8.262
5021	6.9478
5022	6.0648
5023	9.4158
5024	17.049
5025	15.767
5026	16.189
5027	16.471
5028	11.536
5029	6.5008
5030	13.392
5031	12.576
5032	20.672
5033	4.9394
5034	9.9432
5035	3.8557
5036	17.214
5037	3.9335
5038	11.57
5039	3.8194
5040	12.447
5041	5.2862
5042	5.1182
5043	6.3727
5044	14.223
5045	8.3231
5046	9.8141
5047	16.081
5048	14.17
5049	3.6522
5050	3.1749
5051	19.141
5052	13.086
5053	4.9068
5054	12.353
5055	5.1908
5056	18.572
5057	13.939
5058	19.585
5059	19.17
5060	21.534
5061	19.345
5062	3.5399
5063	3.9048
5064	14.07
5065	18.19
5066	13.99
5067	21.969
5068	20.769
5069	5.9097
5070	4.6213
5071	6.5954
5072	7.674
5073	7.175
5074	7.6719
5075	7.5541
5076	11.326
5077	9.7101
5078	12.49
5079	12.125
5080	6.7923
5081	14.553
5082	16.687
5083	17.108
5084	16.546
5085	16.025
5086	10.539
5087	17.352
5088	7.5959
5089	6.5515
5090	9.5912
5091	7.1342
5092	7.6454
5093	14.696
5094	10.58
5095	9.9244
5096	8.4262
5097	9.4626
5098	8.2304
5099	5.2387
5100	7.5643
5101	6.8717
5102	9.8526
5103	16.689
5104	16.838
5105	16.036
5106	18.45
5107	11.996
5108	6.0635
5109	14.601
5110	13.149
5111	20.377
5112	5.0821
5113	9.6817
5114	5.6444
5115	3.6376
5116	15.809
5117	4.0283
5118	13.402
5119	4.5693
5120	12.797
5121	4.5361
5122	5.166
5123	13.412
5124	9.2593
5125	17.489
5126	14.271
5127	3.6997
5128	3.6277
5129	19.54
5130	12.436
5131	4.8949
5132	12.193
5133	5.0136
5134	16.511
5135	13.011
5136	16.917
5137	17.177
5138	21.007
5139	17.091
5140	3.8155
5141	4.1011
5142	13.796
5143	8.3485
5144	16.544
5145	12.944
5146	22.643
5147	22.156
5148	5.0893
5149	5.2966
5150	0.2072
5151	0.25261
5152	0.2274
5153	0.21653
5154	0.16565
5155	0.22222
5156	0.18021
5157	0.17978
5158	0.158
5159	0.21624
5160	0.13564
5161	0.10259
5162	0.18625
5163	0.20831
5164	0.18584
5165	0.20158
5166	0.18247
5167	0.25172
5168	0.1351
5169	0.11496
5170	0.1751
5171	0.20471
5172	0.20604
5173	0.11727
5174	0.57097
5175	0.65659
5176	1.0023
5177	1.0554
5178	1.0699
5179	1.0118
5180	0.88895
5181	1.2161
5182	1.3095
5183	1.0048
5184	0.84439
5185	1.2347
5186	0.90316
5187	1.0405
5188	0.844
5189	0.84947
5190	0.53446
5191	1.2577
5192	1.3066
5193	1.1943
5194	0.76766
5195	0.63717
5196	0.76852
5197	1.0337
5198	1.463
5199	1.3446
5200	0.6363
5201	0.75132
5202	1.0645
5203	0.65552
5204	0.64762
5205	0.90732
5206	1.149
5207	0.94918
5208	0.81949
5209	0.55963
5210	0.89272
5211	1.2011
5212	0.89208
5213	0.81646
5214	0.79955
5215	0.96884
5216	0.92132
5217	1.185
5218	0.72161
5219	0.5502
5220	1.05
5221	1.6356
5222	1.0634
5223	0.87517
5224	0.55932
5225	0.89041
5226	1.1002
5227	1.1394
5228	1.1103
5229	0.61295
5230	0.76601
5231	1.2267
5232	11.112
5233	23.56
5234	35.417
5235	9.2822
5236	41.396
5237	47.679
5238	19.006
5239	23.505
5240	34.05
5241	17.123
5242	15.22
5243	28.037
5244	7.6418
5245	41.647
5246	42.99
5247	36.288
5248	17.211
5249	24.992
5250	26.453
5251	39.232
5252	19.682
5253	53.252
5254	6.424
5255	12.133
5256	31.426
5257	7.3956
5258	38.853
5259	13.713
5260	32.055
5261	20.759
5262	38.752
5263	17.798
5264	38.175
5265	24.956
5266	11.43
5267	30.196
5268	44.364
5269	27.793
5270	3.5087
5271	44.253
5272	10.448
5273	32.007
5274	4.3126
5275	44.801
5276	7.6353
5277	14.183
5278	32.862
5279	35.746
5280	33.88
5281	13.845
5282	36.082
5283	49.34
5284	21.392
5285	25.954
5286	10.059
5287	27.644
5288	20.382
5289	23.696
5290	20.156
5291	17.115
5292	26.432
5293	26.671
5294	6.1399
5295	33.374
5296	19.605
5297	37.917
5298	31.103
5299	13.728
5300	34.663
5301	35.853
5302	24.446
5303	33.966
5304	26.392
5305	26.787
5306	29.186
5307	14.159
5308	6.5418
5309	9.7925
5310	35.015
5311	8.1866
5312	38.147
5313	21.463
5314	3.4478
5315	33.956
5316	3.9261
5317	48.901
5318	40.492
5319	16.453
5320	15.119
5321	30.47
5322	51.365
5323	31.849
5324	37.12
5325	36.546
5326	34.868
5327	3.1984
5328	42.193
5329	20.503
5330	42.802
5331	48.93
5332	23.084
5333	3.4484
5334	18.748
5335	42.372
5336	18.697
5337	17.355
5338	11.373
5339	40.815
5340	2.5979
5341	13.889
5342	51.541
5343	16.414
5344	17.6
5345	6.0875
5346	20.498
5347	24.387
5348	21.522
5349	29.532
5350	45.136
5351	23.737
5352	29.441
5353	2.581
5354	37.259
5355	9.882
5356	44.012
5357	9.2783
5358	22.605
5359	11.847
5360	21.38
5361	36.968
5362	15.958
5363	45.589
5364	55.419
5365	24.438
5366	30.974
5367	5.6809
5368	29.071
5369	25.632
5370	34.024
5371	13.242
5372	9.3186
5373	1.9552
5374	45.101
5375	17.049
5376	28.436
5377	4.6429
5378	27.258
5379	11.885
5380	26.045
5381	10.902
5382	23.619
5383	35.361
5384	9.2727
5385	41.345
5386	47.705
5387	19.316
5388	23.857
5389	33.113
5390	16.713
5391	15.138
5392	28.095
5393	7.5897
5394	41.616
5395	42.985
5396	36.326
5397	17.327
5398	24.966
5399	26.527
5400	39.271
5401	19.649
5402	53.182
5403	6.4768
5404	12.385
5405	31.424
5406	6.9359
5407	38.793
5408	13.717
5409	32.041
5410	21.955
5411	38.317
5412	17.75
5413	38.266
5414	25.528
5415	11.227
5416	29.985
5417	44.614
5418	27.854
5419	3.5082
5420	44.198
5421	10.776
5422	32.267
5423	4.2949
5424	44.753
5425	7.7624
5426	14.066
5427	32.921
5428	35.692
5429	33.843
5430	13.833
5431	36.15
5432	49.476
5433	21.248
5434	25.883
5435	10.119
5436	27.625
5437	19.793
5438	23.74
5439	19.067
5440	16.817
5441	26.467
5442	26.734
5443	6.1316
5444	33.399
5445	19.428
5446	37.969
5447	31.102
5448	13.887
5449	34.665
5450	35.783
5451	22.251
5452	33.87
5453	26.415
5454	26.637
5455	29.202
5456	14.504
5457	6.5496
5458	9.9467
5459	35.006
5460	8.1535
5461	38.112
5462	21.56
5463	3.4638
5464	34.074
5465	3.7663
5466	48.858
5467	40.286
5468	16.524
5469	15.45
5470	30.459
5471	51.318
5472	33.483
5473	37.01
5474	36.469
5475	34.343
5476	3.201
5477	42.217
5478	20.292
5479	42.749
5480	48.885
5481	23.069
5482	3.5258
5483	18.712
5484	42.331
5485	18.704
5486	16.881
5487	11.482
5488	40.753
5489	2.516
5490	13.919
5491	51.883
5492	16.331
5493	17.274
5494	6.3168
5495	20.534
5496	24.292
5497	21.419
5498	29.507
5499	45.169
5500	23.913
5501	29.407
5502	2.5721
5503	36.911
5504	9.7379
5505	43.938
5506	9.0363
5507	22.975
5508	11.839
5509	21.533
5510	37.212
5511	16.125
5512	45.668
5513	55.609
5514	24.392
5515	30.963
5516	5.6767
5517	29.231
5518	25.654
5519	33.992
5520	13.148
5521	9.2611
5522	1.9507
5523	45.098
5524	16.945
5525	28.463
5526	4.6223
5527	27.798
5528	12.246
5529	26.015
5530	10.783
5531	25.41
5532	35.263
5533	46.068
5534	20.115
5535	55.512
5536	11.025
5537	26.159
5538	36.73
5539	17.189
5540	17.408
5541	8.8979
5542	43.328
5543	31.021
5544	13.356
5545	38.582
5546	26.976
5547	50.65
5548	28.943
5549	7.745
5550	44.689
5551	33.82
5552	47.552
5553	42.448
5554	43.651
5555	15.866
5556	15.648
5557	13.037
5558	58.411
5559	19.972
5560	32.325
5561	45.65
5562	5.9228
5563	24.841
5564	5.2393
5565	6.1954
5566	30.398
5567	2.9067
5568	49.454
5569	40.439
5570	50.505
5571	31.374
5572	37.829
5573	22.176
5574	22.403
5575	38.329
5576	20.882
5577	8.4267
5578	28.661
5579	23.337
5580	30.253
5581	13.707
5582	18.292
5583	9.6284
5584	35.85
5585	38.844
5586	13.621
5587	13.409
5588	3.6753
5589	33.537
5590	33.83
5591	31.34
5592	11.518
5593	13.775
5594	48.06
5595	16.524
5596	52.641
5597	8.1969
5598	52.279
5599	37.538
5600	25.769
5601	32.578
5602	43.25
5603	24.891
5604	42.392
5605	39.434
5606	3.7929
5607	30.948
5608	22.87
5609	10.879
5610	11.874
5611	50.231
5612	19.212
5613	35.871
5614	17.849
5615	40.922
5616	39.078
5617	28.289
5618	50.027
5619	16.144
5620	4.1292
5621	22.96
5622	36.175
5623	41.809
5624	19.354
5625	26.447
5626	44.401
5627	17.554
5628	48.557
5629	4.1851
5630	19.507
5631	33.472
5632	2.461
5633	38.78
5634	58.032
5635	43.59
5636	36.783
5637	45.088
5638	14.105
5639	10.944
5640	20.5
5641	14.784
5642	23.39
5643	30.329
5644	24.288
5645	25.701
5646	5.9329
5647	12.228
5648	20.367
5649	19.635
5650	30.595
5651	7.4849
5652	46.285
5653	56.213
5654	25.757
5655	17.503
5656	40.925
5657	39.093
5658	26.488
5659	39.36
5660	26.859
5661	23.04
5662	24.48
5663	2.905
5664	5.6464
5665	16.066
5666	45.485
5667	31.122
5668	57.615
5669	10.025
5670	8.4591
5671	55.404
5672	28.917
5673	46.461
5674	38.498
5675	48.608
5676	11.103
5677	30.859
5678	18.822
5679	22.387
5680	51.524
5681	31.335
5682	8.7549
5683	27.707
5684	37.002
5685	1.6943
5686	54.286
5687	14.964
5688	11.134
5689	25.555
5690	35.213
5691	45.974
5692	21.45
5693	55.587
5694	11.611
5695	26.081
5696	35.299
5697	16.56
5698	17.5
5699	8.5549
5700	43.283
5701	31.056
5702	13.092
5703	38.423
5704	27.067
5705	50.742
5706	28.948
5707	7.9025
5708	44.636
5709	33.798
5710	47.22
5711	42.459
5712	43.681
5713	18.399
5714	12.793
5715	58.536
5716	24.07
5717	32.281
5718	45.708
5719	5.9537
5720	23.975
5721	5.2089
5722	16.127
5723	5.9218
5724	30.124
5725	2.9057
5726	49.381
5727	40.513
5728	50.411
5729	15.832
5730	31.392
5731	37.976
5732	22.498
5733	38.357
5734	20.94
5735	8.5624
5736	28.659
5737	23.894
5738	30.227
5739	13.746
5740	17.632
5741	9.6374
5742	35.983
5743	38.813
5744	19.83
5745	3.6724
5746	33.581
5747	33.816
5748	31.295
5749	13.401
5750	48.767
5751	52.524
5752	8.1682
5753	13.281
5754	51.868
5755	37.28
5756	20.4
5757	25.793
5758	16.299
5759	32.456
5760	43.268
5761	25.906
5762	42.308
5763	18.17
5764	39.36
5765	4.0348
5766	30.908
5767	23.75
5768	11.579
5769	50.278
5770	35.907
5771	40.74
5772	39.079
5773	29.134
5774	50.01
5775	16.169
5776	4.1212
5777	22.984
5778	37.212
5779	18.256
5780	41.721
5781	26.338
5782	44.367
5783	48.493
5784	12.208
5785	4.2285
5786	19.479
5787	11.071
5788	33.457
5789	2.4622
5790	38.815
5791	58.455
5792	42.292
5793	36.819
5794	20.93
5795	45.083
5796	21.369
5797	14.726
5798	23.675
5799	30.32
5800	24.341
5801	14.752
5802	25.69
5803	10.195
5804	5.9275
5805	12.242
5806	30.592
5807	7.5225
5808	45.921
5809	56.492
5810	26.361
5811	40.892
5812	39.007
5813	26.548
5814	39.354
5815	27.158
5816	22.409
5817	25.185
5818	2.7519
5819	15.471
5820	14.266
5821	44.529
5822	19.583
5823	31.152
5824	57.941
5825	14.302
5826	9.8856
5827	8.381
5828	55.367
5829	28.916
5830	46.75
5831	37.982
5832	48.593
5833	13.464
5834	18.19
5835	11.103
5836	29.967
5837	18.664
5838	51.497
5839	31.308
5840	8.418
5841	27.797
5842	36.972
5843	1.6521
5844	54.566
5845	11.117
5846	23.604
5847	35.442
5848	9.2881
5849	42.948
5850	48.495
5851	18.957
5852	23.5
5853	32.29
5854	17.135
5855	15.226
5856	28.061
5857	7.65
5858	39.143
5859	42.336
5860	35.603
5861	17.224
5862	24.974
5863	26.519
5864	38.7
5865	19.684
5866	53.712
5867	6.4279
5868	12.149
5869	31.804
5870	7.3959
5871	42.142
5872	13.706
5873	32.111
5874	20.771
5875	39.813
5876	17.838
5877	39.014
5878	24.948
5879	11.439
5880	45.54
5881	29.876
5882	27.826
5883	3.509
5884	46.304
5885	10.466
5886	30.964
5887	4.3179
5888	45.984
5889	7.6396
5890	14.178
5891	30.562
5892	35.526
5893	33.845
5894	13.672
5895	36.943
5896	50.993
5897	21.438
5898	25.882
5899	10.058
5900	28.002
5901	20.414
5902	23.745
5903	20.185
5904	17.092
5905	26.545
5906	27.793
5907	6.1388
5908	32.156
5909	19.578
5910	31.128
5911	13.739
5912	36.861
5913	34.477
5914	35.876
5915	24.425
5916	33.855
5917	26.422
5918	26.809
5919	29.211
5920	14.167
5921	6.5473
5922	9.8098
5923	34.589
5924	8.1911
5925	39.741
5926	21.481
5927	3.4504
5928	34.06
5929	3.9286
5930	49.368
5931	43.381
5932	16.448
5933	15.063
5934	30.577
5935	50.115
5936	34.609
5937	33.538
5938	37.294
5939	37.115
5940	3.2052
5941	42.016
5942	20.49
5943	42.255
5944	50.58
5945	23.065
5946	3.4491
5947	18.715
5948	41.211
5949	18.708
5950	16.642
5951	11.38
5952	38.775
5953	2.487
5954	13.893
5955	50.059
5956	16.399
5957	17.574
5958	6.0912
5959	20.524
5960	24.38
5961	21.495
5962	29.724
5963	45.042
5964	23.765
5965	29.91
5966	2.5648
5967	36.275
5968	9.888
5969	44.445
5970	9.285
5971	22.581
5972	11.673
5973	21.357
5974	37.043
5975	15.884
5976	45.822
5977	53.667
5978	24.311
5979	31.296
5980	5.6894
5981	28.288
5982	25.238
5983	32.546
5984	13.223
5985	9.3228
5986	1.9565
5987	45.645
5988	17.064
5989	26.998
5990	4.6437
5991	25.047
5992	11.891
5993	26.055
5994	11.114
5995	23.599
5996	35.439
5997	9.2872
5998	42.944
5999	48.441
6000	19.014
6001	23.511
6002	32.29
6003	17.135
6004	15.222
6005	28.059
6006	7.6462
6007	39.164
6008	42.392
6009	35.594
6010	17.221
6011	24.975
6012	26.511
6013	38.699
6014	19.686
6015	52.802
6016	6.4273
6017	12.132
6018	31.806
6019	7.3947
6020	42.156
6021	13.71
6022	32.107
6023	20.756
6024	39.812
6025	17.793
6026	39.013
6027	24.952
6028	11.435
6029	45.571
6030	29.878
6031	27.821
6032	3.5084
6033	46.287
6034	10.464
6035	30.992
6036	4.3129
6037	45.966
6038	7.638
6039	14.191
6040	30.775
6041	35.525
6042	33.839
6043	13.668
6044	36.945
6045	50.906
6046	21.408
6047	25.881
6048	10.059
6049	28.004
6050	20.404
6051	23.739
6052	20.148
6053	17.125
6054	26.54
6055	27.786
6056	6.1394
6057	32.215
6058	19.582
6059	31.125
6060	13.736
6061	36.98
6062	34.475
6063	35.876
6064	24.429
6065	33.856
6066	26.414
6067	26.812
6068	29.208
6069	14.164
6070	6.5458
6071	9.8015
6072	34.598
6073	8.1899
6074	39.746
6075	21.47
6076	3.4493
6077	34.058
6078	3.9267
6079	49.329
6080	43.374
6081	16.45
6082	15.115
6083	30.572
6084	49.962
6085	34.683
6086	33.537
6087	37.295
6088	37.153
6089	3.2042
6090	42.013
6091	20.484
6092	42.247
6093	50.421
6094	23.065
6095	3.4486
6096	18.705
6097	41.205
6098	18.718
6099	17.37
6100	11.377
6101	38.778
6102	2.4378
6103	13.891
6104	50.032
6105	16.407
6106	17.577
6107	6.0881
6108	20.522
6109	24.391
6110	21.49
6111	29.718
6112	45.026
6113	23.758
6114	29.906
6115	2.5713
6116	36.278
6117	9.8861
6118	44.425
6119	9.2818
6120	22.575
6121	11.681
6122	21.362
6123	37.035
6124	15.934
6125	46.017
6126	53.232
6127	24.322
6128	31.294
6129	5.6858
6130	27.74
6131	25.487
6132	32.551
6133	13.246
6134	9.3346
6135	1.9587
6136	45.636
6137	17.064
6138	27.007
6139	4.6506
6140	24.804
6141	11.891
6142	26.057
6143	11.117
6144	23.604
6145	35.441
6146	9.2879
6147	42.957
6148	48.575
6149	18.957
6150	23.502
6151	32.287
6152	17.135
6153	15.226
6154	28.057
6155	7.6481
6156	39.143
6157	42.374
6158	35.597
6159	17.223
6160	24.974
6161	26.518
6162	38.698
6163	19.684
6164	54.868
6165	6.4276
6166	12.147
6167	31.805
6168	7.3968
6169	42.151
6170	13.705
6171	32.109
6172	20.773
6173	39.819
6174	17.838
6175	39.012
6176	24.952
6177	11.439
6178	46.162
6179	29.872
6180	27.823
6181	3.5086
6182	46.343
6183	10.46
6184	30.97
6185	4.3144
6186	46.021
6187	7.6394
6188	14.178
6189	30.577
6190	35.524
6191	33.84
6192	13.673
6193	36.942
6194	51.069
6195	21.437
6196	25.882
6197	10.057
6198	28.002
6199	20.414
6200	23.744
6201	20.186
6202	17.092
6203	26.543
6204	27.775
6205	6.1386
6206	32.16
6207	19.577
6208	31.125
6209	13.739
6210	36.861
6211	34.477
6212	35.875
6213	24.428
6214	33.856
6215	26.421
6216	26.808
6217	29.209
6218	14.167
6219	6.5467
6220	9.8091
6221	34.546
6222	8.1907
6223	39.738
6224	21.482
6225	3.45
6226	34.045
6227	3.9273
6228	49.446
6229	43.396
6230	16.448
6231	15.062
6232	30.574
6233	50.316
6234	34.499
6235	33.532
6236	37.298
6237	37.047
6238	3.1971
6239	42.035
6240	20.49
6241	42.266
6242	50.75
6243	23.065
6244	3.4495
6245	18.74
6246	41.22
6247	18.707
6248	16.642
6249	11.379
6250	38.779
6251	2.4377
6252	13.893
6253	50.883
6254	16.398
6255	17.577
6256	6.0876
6257	20.524
6258	24.381
6259	21.494
6260	29.722
6261	45.075
6262	23.765
6263	29.908
6264	2.5641
6265	36.276
6266	9.8878
6267	44.48
6268	9.2843
6269	22.579
6270	11.678
6271	21.356
6272	37.035
6273	15.883
6274	45.972
6275	53.846
6276	24.33
6277	31.295
6278	5.6865
6279	28.123
6280	25.489
6281	32.547
6282	13.232
6283	9.3275
6284	1.9528
6285	45.673
6286	17.064
6287	26.993
6288	4.6552
6289	24.833
6290	11.89
6291	26.055
6292	11.117
6293	23.605
6294	35.444
6295	9.2885
6296	43.004
6297	48.804
6298	18.958
6299	23.502
6300	32.285
6301	17.136
6302	15.226
6303	28.059
6304	7.6502
6305	39.154
6306	42.331
6307	35.603
6308	17.224
6309	24.973
6310	26.519
6311	38.717
6312	19.684
6313	54.213
6314	6.4281
6315	12.148
6316	31.804
6317	7.3959
6318	42.124
6319	13.706
6320	32.113
6321	20.771
6322	39.82
6323	17.838
6324	39.018
6325	24.954
6326	11.439
6327	45.656
6328	29.869
6329	27.825
6330	3.5093
6331	46.386
6332	10.46
6333	30.966
6334	4.3168
6335	46.14
6336	7.6398
6337	14.178
6338	30.563
6339	35.531
6340	33.814
6341	13.671
6342	36.95
6343	51.38
6344	21.438
6345	25.882
6346	10.058
6347	28.002
6348	20.415
6349	23.745
6350	20.186
6351	17.093
6352	26.544
6353	27.776
6354	6.1387
6355	32.156
6356	19.577
6357	31.127
6358	13.739
6359	36.616
6360	34.479
6361	35.881
6362	24.428
6363	33.856
6364	26.421
6365	26.809
6366	29.211
6367	14.167
6368	6.5476
6369	9.8094
6370	34.432
6371	8.1915
6372	39.762
6373	21.482
6374	3.4505
6375	33.969
6376	3.9285
6377	49.617
6378	43.452
6379	16.448
6380	15.063
6381	30.577
6382	50.673
6383	33.832
6384	33.536
6385	37.304
6386	36.846
6387	3.2051
6388	42.086
6389	20.49
6390	42.313
6391	50.542
6392	23.064
6393	3.4491
6394	18.715
6395	41.22
6396	18.709
6397	16.643
6398	11.38
6399	38.797
6400	2.4315
6401	13.893
6402	49.336
6403	16.398
6404	17.573
6405	6.09
6406	20.524
6407	24.38
6408	21.495
6409	29.723
6410	45.196
6411	23.765
6412	29.91
6413	2.5642
6414	36.262
6415	9.8883
6416	44.606
6417	9.2854
6418	22.579
6419	11.674
6420	21.356
6421	37.048
6422	15.882
6423	45.521
6424	54.202
6425	24.332
6426	31.296
6427	5.6897
6428	28.018
6429	25.486
6430	32.541
6431	13.232
6432	9.3192
6433	1.9603
6434	45.738
6435	17.065
6436	26.964
6437	4.6502
6438	24.837
6439	11.891
6440	26.055
6441	11.117
6442	23.603
6443	35.441
6444	9.2878
6445	42.956
6446	48.628
6447	18.957
6448	23.499
6449	32.287
6450	17.135
6451	15.226
6452	28.058
6453	7.6488
6454	39.143
6455	42.442
6456	35.595
6457	17.223
6458	24.975
6459	26.518
6460	38.696
6461	19.684
6462	54.309
6463	6.4278
6464	12.148
6465	31.806
6466	7.396
6467	42.199
6468	13.705
6469	32.109
6470	20.77
6471	39.821
6472	17.838
6473	39.011
6474	24.947
6475	11.439
6476	45.682
6477	29.872
6478	27.823
6479	3.5087
6480	46.329
6481	10.46
6482	30.973
6483	4.3151
6484	46.026
6485	7.6394
6486	14.178
6487	30.574
6488	35.521
6489	33.839
6490	13.674
6491	36.941
6492	51.257
6493	21.437
6494	25.882
6495	10.058
6496	28.003
6497	20.414
6498	23.744
6499	20.185
6500	17.092
6501	26.544
6502	27.771
6503	6.1393
6504	32.179
6505	19.578
6506	31.125
6507	13.739
6508	36.469
6509	34.476
6510	35.872
6511	24.425
6512	33.853
6513	26.421
6514	26.807
6515	29.208
6516	14.167
6517	6.5468
6518	9.8092
6519	34.493
6520	8.1909
6521	39.737
6522	21.48
6523	3.4502
6524	34.023
6525	3.9281
6526	49.442
6527	43.4
6528	16.448
6529	15.063
6530	30.574
6531	50.322
6532	34.05
6533	33.53
6534	37.301
6535	36.963
6536	3.2065
6537	42.066
6538	20.489
6539	42.268
6540	50.633
6541	23.065
6542	3.4495
6543	18.717
6544	41.219
6545	18.707
6546	16.642
6547	11.379
6548	38.778
6549	2.5996
6550	13.893
6551	50.958
6552	16.399
6553	17.576
6554	6.09
6555	20.523
6556	24.379
6557	21.498
6558	29.722
6559	45.137
6560	23.764
6561	29.908
6562	2.588
6563	36.277
6564	9.8879
6565	44.483
6566	9.2844
6567	22.583
6568	11.681
6569	21.356
6570	37.032
6571	15.885
6572	46.107
6573	54.138
6574	24.319
6575	31.296
6576	5.6875
6577	28.028
6578	25.245
6579	32.549
6580	13.223
6581	9.3281
6582	1.9551
6583	45.681
6584	17.064
6585	26.977
6586	4.6454
6587	24.843
6588	11.89
6589	26.054
6590	11.117
6591	23.603
6592	35.424
6593	9.2879
6594	43.493
6595	48.647
6596	18.958
6597	23.502
6598	32.314
6599	17.136
6600	15.227
6601	28.067
6602	7.6495
6603	39.015
6604	42.723
6605	35.739
6606	17.224
6607	24.977
6608	26.518
6609	39.084
6610	19.684
6611	56.153
6612	6.4279
6613	12.148
6614	31.785
6615	7.396
6616	42.617
6617	13.706
6618	32.075
6619	20.768
6620	40.443
6621	17.838
6622	39.195
6623	24.948
6624	11.439
6625	42.377
6626	29.877
6627	27.829
6628	3.5093
6629	46.202
6630	10.459
6631	30.995
6632	4.3177
6633	46.576
6634	7.6396
6635	14.178
6636	30.586
6637	35.602
6638	33.683
6639	13.672
6640	36.697
6641	50.974
6642	21.439
6643	25.454
6644	10.059
6645	28.002
6646	20.416
6647	23.743
6648	20.186
6649	17.093
6650	26.542
6651	27.781
6652	6.1389
6653	32.111
6654	19.58
6655	31.134
6656	13.739
6657	36.259
6658	34.393
6659	35.86
6660	24.427
6661	33.873
6662	26.428
6663	26.814
6664	29.228
6665	14.167
6666	6.5471
6667	9.809
6668	34.803
6669	8.1901
6670	40.271
6671	21.48
6672	3.4504
6673	34.13
6674	3.9286
6675	48.953
6676	45.257
6677	16.449
6678	15.061
6679	30.569
6680	50.595
6681	31.834
6682	33.644
6683	37.347
6684	37.08
6685	3.2053
6686	42.013
6687	20.486
6688	42.562
6689	50.714
6690	23.067
6691	3.4493
6692	18.713
6693	41.319
6694	18.708
6695	16.642
6696	11.379
6697	41.417
6698	2.5946
6699	13.893
6700	52.789
6701	16.4
6702	17.573
6703	6.091
6704	20.524
6705	24.382
6706	21.492
6707	29.718
6708	45.379
6709	23.764
6710	29.892
6711	2.5642
6712	36.328
6713	9.888
6714	46.541
6715	9.2851
6716	22.577
6717	11.673
6718	21.356
6719	37.349
6720	15.882
6721	45.93
6722	54.112
6723	24.344
6724	31.279
6725	5.689
6726	27.979
6727	25.23
6728	32.609
6729	13.231
6730	9.3195
6731	1.9569
6732	43.52
6733	17.064
6734	27.117
6735	4.6437
6736	24.878
6737	11.891
6738	26.06
6739	11.117
6740	23.603
6741	35.44
6742	9.2879
6743	43.01
6744	48.343
6745	18.955
6746	23.499
6747	32.292
6748	17.134
6749	15.215
6750	28.063
6751	7.6497
6752	39.165
6753	43.955
6754	35.622
6755	17.223
6756	24.976
6757	26.52
6758	38.675
6759	19.684
6760	53.351
6761	6.4276
6762	12.149
6763	31.802
6764	7.3969
6765	41.829
6766	13.705
6767	32.101
6768	20.789
6769	39.964
6770	17.846
6771	38.969
6772	24.958
6773	11.438
6774	43.157
6775	29.859
6776	27.824
6777	3.5089
6778	46.174
6779	10.47
6780	30.976
6781	4.3128
6782	46.209
6783	7.6393
6784	14.175
6785	30.645
6786	35.524
6787	33.869
6788	13.642
6789	36.907
6790	51.58
6791	21.437
6792	25.884
6793	10.057
6794	28.002
6795	20.413
6796	23.745
6797	20.194
6798	17.089
6799	26.544
6800	27.809
6801	6.1386
6802	32.182
6803	19.579
6804	31.125
6805	13.739
6806	36.695
6807	34.466
6808	35.868
6809	24.417
6810	33.855
6811	26.425
6812	26.809
6813	29.202
6814	14.166
6815	6.5469
6816	9.8133
6817	34.792
6818	8.1912
6819	39.773
6820	21.488
6821	3.45
6822	34.086
6823	3.9276
6824	48.756
6825	43.17
6826	16.448
6827	15.058
6828	30.572
6829	50.308
6830	33.061
6831	33.546
6832	37.324
6833	37.97
6834	3.1974
6835	41.881
6836	20.591
6837	42.359
6838	50.518
6839	23.067
6840	3.4497
6841	18.781
6842	41.267
6843	18.703
6844	16.643
6845	11.379
6846	38.681
6847	2.513
6848	13.893
6849	49.943
6850	16.399
6851	17.578
6852	6.0886
6853	20.523
6854	24.383
6855	21.459
6856	29.72
6857	45.173
6858	23.767
6859	29.904
6860	2.5647
6861	36.3
6862	9.8876
6863	47.328
6864	9.2862
6865	22.573
6866	11.693
6867	21.356
6868	37.052
6869	15.939
6870	45.739
6871	53.2
6872	24.316
6873	31.293
6874	5.6868
6875	28.319
6876	25.561
6877	32.559
6878	13.288
6879	9.3258
6880	1.9564
6881	45.604
6882	17.064
6883	26.938
6884	4.6445
6885	24.778
6886	11.889
6887	26.06
6888	11.117
6889	23.603
6890	35.443
6891	9.2886
6892	42.958
6893	48.667
6894	18.955
6895	23.499
6896	32.289
6897	17.135
6898	15.215
6899	28.063
6900	7.6502
6901	39.167
6902	44.118
6903	35.612
6904	17.223
6905	24.974
6906	26.521
6907	38.701
6908	19.684
6909	54.578
6910	6.4282
6911	12.149
6912	31.803
6913	7.396
6914	41.866
6915	13.705
6916	32.108
6917	20.789
6918	39.826
6919	17.846
6920	39.009
6921	24.959
6922	11.439
6923	42.809
6924	29.856
6925	27.825
6926	3.5089
6927	46.314
6928	10.471
6929	30.969
6930	4.313
6931	46.047
6932	7.6395
6933	14.176
6934	30.642
6935	35.528
6936	33.804
6937	13.642
6938	36.94
6939	51.914
6940	21.438
6941	25.883
6942	10.058
6943	28.
6944	20.413
6945	23.745
6946	20.194
6947	17.09
6948	26.544
6949	27.809
6950	6.139
6951	32.164
6952	19.578
6953	31.126
6954	13.739
6955	36.111
6956	34.476
6957	35.875
6958	24.416
6959	33.854
6960	26.424
6961	26.81
6962	29.204
6963	14.166
6964	6.5476
6965	9.8137
6966	34.651
6967	8.1915
6968	39.753
6969	21.489
6970	3.4506
6971	33.958
6972	3.9282
6973	49.566
6974	43.395
6975	16.448
6976	15.059
6977	30.575
6978	50.619
6979	32.262
6980	33.541
6981	37.323
6982	37.826
6983	3.2066
6984	41.911
6985	20.591
6986	42.281
6987	50.589
6988	23.066
6989	3.4498
6990	18.781
6991	41.251
6992	18.704
6993	16.643
6994	11.38
6995	38.779
6996	2.5147
6997	13.892
6998	50.546
6999	16.398
7000	17.577
7001	6.0886
7002	20.523
7003	24.382
7004	21.46
7005	29.723
7006	45.342
7007	23.768
7008	29.908
7009	2.588
7010	36.28
7011	9.888
7012	44.525
7013	9.2865
7014	22.575
7015	11.694
7016	21.356
7017	37.048
7018	15.938
7019	46.
7020	53.574
7021	24.321
7022	31.294
7023	5.6875
7024	28.37
7025	25.56
7026	32.546
7027	13.289
7028	9.3263
7029	1.957
7030	45.685
7031	17.063
7032	26.819
7033	4.6447
7034	24.878
7035	11.89
7036	26.059
7037	11.117
7038	23.603
7039	35.443
7040	9.2885
7041	42.949
7042	48.588
7043	18.955
7044	23.499
7045	32.29
7046	17.134
7047	15.215
7048	28.063
7049	7.6511
7050	39.171
7051	44.102
7052	35.612
7053	17.223
7054	24.976
7055	26.521
7056	38.698
7057	19.685
7058	54.784
7059	6.428
7060	12.15
7061	31.805
7062	7.396
7063	41.934
7064	13.706
7065	32.108
7066	20.789
7067	39.831
7068	17.846
7069	39.009
7070	24.959
7071	11.439
7072	44.931
7073	29.857
7074	27.825
7075	3.509
7076	46.302
7077	10.471
7078	30.97
7079	4.3163
7080	46.019
7081	7.6396
7082	14.176
7083	30.637
7084	35.527
7085	33.816
7086	13.642
7087	36.94
7088	51.516
7089	21.437
7090	25.883
7091	10.058
7092	28.002
7093	20.413
7094	23.745
7095	20.194
7096	17.089
7097	26.545
7098	27.81
7099	6.1385
7100	32.165
7101	19.579
7102	31.125
7103	13.739
7104	36.312
7105	34.476
7106	35.874
7107	24.416
7108	33.854
7109	26.425
7110	26.809
7111	29.203
7112	14.166
7113	6.5475
7114	9.8141
7115	34.647
7116	8.1918
7117	39.749
7118	21.489
7119	3.4505
7120	33.965
7121	3.9286
7122	49.523
7123	43.39
7124	16.449
7125	15.059
7126	30.574
7127	50.55
7128	32.498
7129	33.541
7130	37.325
7131	37.694
7132	3.2054
7133	41.926
7134	20.591
7135	42.272
7136	50.411
7137	23.067
7138	3.4493
7139	18.781
7140	41.252
7141	18.703
7142	16.643
7143	11.38
7144	38.778
7145	2.5903
7146	13.893
7147	51.236
7148	16.4
7149	17.578
7150	6.0909
7151	20.523
7152	24.382
7153	21.46
7154	29.723
7155	45.302
7156	23.768
7157	29.908
7158	2.5642
7159	36.285
7160	9.888
7161	44.506
7162	9.2868
7163	22.575
7164	11.694
7165	21.357
7166	37.046
7167	15.939
7168	40.821
7169	53.556
7170	24.319
7171	31.295
7172	5.6889
7173	28.406
7174	25.561
7175	32.55
7176	13.289
7177	9.3263
7178	1.9564
7179	45.671
7180	17.063
7181	26.82
7182	4.6406
7183	24.876
7184	11.89
7185	26.059
7186	11.117
7187	23.602
7188	35.42
7189	9.2884
7190	43.565
7191	48.269
7192	18.956
7193	23.5
7194	32.294
7195	17.136
7196	15.216
7197	28.068
7198	7.6502
7199	39.132
7200	42.242
7201	35.71
7202	17.223
7203	24.977
7204	26.52
7205	39.06
7206	19.684
7207	54.28
7208	6.428
7209	12.149
7210	31.786
7211	7.396
7212	42.083
7213	13.705
7214	32.074
7215	20.788
7216	40.442
7217	17.845
7218	39.201
7219	24.958
7220	11.439
7221	45.095
7222	29.854
7223	27.828
7224	3.5086
7225	46.094
7226	10.47
7227	31.012
7228	4.3126
7229	45.772
7230	7.6394
7231	14.176
7232	30.704
7233	35.564
7234	33.958
7235	13.642
7236	36.703
7237	50.998
7238	21.439
7239	25.886
7240	10.058
7241	28.
7242	20.415
7243	23.744
7244	20.194
7245	17.09
7246	26.543
7247	27.78
7248	6.1392
7249	32.256
7250	19.58
7251	31.126
7252	13.739
7253	36.661
7254	34.395
7255	35.845
7256	24.417
7257	33.858
7258	26.43
7259	26.814
7260	29.21
7261	14.166
7262	6.5473
7263	9.8137
7264	34.555
7265	8.1913
7266	40.115
7267	21.488
7268	3.4504
7269	34.106
7270	3.9282
7271	48.526
7272	45.272
7273	16.448
7274	15.058
7275	30.566
7276	50.301
7277	33.119
7278	33.61
7279	37.335
7280	37.034
7281	3.2066
7282	41.967
7283	20.587
7284	42.328
7285	50.572
7286	23.068
7287	3.4495
7288	18.778
7289	41.315
7290	18.703
7291	16.643
7292	11.38
7293	41.435
7294	2.5269
7295	13.892
7296	47.986
7297	16.399
7298	17.575
7299	6.0901
7300	20.524
7301	24.384
7302	21.455
7303	29.718
7304	44.967
7305	23.767
7306	29.892
7307	2.588
7308	36.343
7309	9.8879
7310	46.389
7311	9.2866
7312	22.571
7313	11.692
7314	21.355
7315	37.254
7316	15.936
7317	45.603
7318	53.656
7319	24.367
7320	31.28
7321	5.6872
7322	28.097
7323	25.559
7324	32.611
7325	13.287
7326	9.3255
7327	1.9559
7328	45.332
7329	17.064
7330	27.27
7331	4.631
7332	25.001
7333	11.89
7334	26.063
7335	0.22109
7336	0.17827
7337	0.38762
7338	0.68993
7339	0.92551
7340	1.1276
7341	1.3027
7342	1.1402
7343	1.1641
7344	1.2925
7345	1.2135
7346	1.0008
7347	0.85742
7348	0.76168
7349	0.4915
7350	0.35492
7351	0.33914
7352	0.52051
7353	0.7576
7354	0.82976
7355	0.98624
7356	1.1875
7357	1.2962
7358	1.2695
7359	1.2302
7360	1.305
7361	1.0595
7362	0.95411
7363	0.7466
7364	0.67741
7365	0.20979
7366	0.18173
7367	0.50399
7368	0.60513
7369	0.76832
7370	0.82306
7371	0.98225
7372	1.1923
7373	1.3044
7374	1.2501
7375	1.1555
7376	1.3017
7377	1.0806
7378	0.99835
7379	0.72839
7380	0.28016
7381	0.16906
7382	0.22331
7383	0.44473
7384	0.30266
7385	0.63918
7386	0.95488
7387	1.145
7388	1.3005
7389	1.0908
7390	1.1607
7391	1.3012
7392	1.2204
7393	0.99847
7394	0.84988
7395	0.75585
7396	0.45852
7397	0.28395
7398	0.485
7399	0.50513
7400	0.73361
7401	0.83393
7402	1.0044
7403	1.2134
7404	1.2924
7405	1.1651
7406	1.1383
7407	1.299
7408	1.1283
7409	0.97116
7410	0.58681
7411	0.72935
7412	0.4032
7413	0.24592
7414	0.46851
7415	0.54111
7416	0.73057
7417	0.80967
7418	0.99016
7419	1.188
7420	1.2974
7421	1.2688
7422	1.2271
7423	1.3001
7424	1.0617
7425	0.96218
7426	0.93664
7427	0.67991
7428	0.22365
7429	0.22852
7430	0.27922
7431	0.22861
7432	0.48763
7433	0.67907
7434	0.92792
7435	1.125
7436	1.2981
7437	1.1378
7438	1.1629
7439	1.2899
7440	1.2116
7441	1.0016
7442	0.83308
7443	0.74013
7444	0.51712
7445	0.43974
7446	0.39693
7447	0.53658
7448	0.72931
7449	0.80245
7450	0.98664
7451	1.1858
7452	1.2952
7453	1.2659
7454	1.2259
7455	1.2993
7456	1.0585
7457	0.95548
7458	0.74169
7459	0.67838
7460	0.23937
7461	0.20743
7462	0.28931
7463	0.18756
7464	0.50861
7465	0.68232
7466	0.93689
7467	1.1242
7468	1.3003
7469	1.1395
7470	1.165
7471	1.2928
7472	1.2148
7473	1.006
7474	0.79656
7475	0.75482
7476	0.50206
7477	0.44532
7478	0.39861
7479	0.52889
7480	0.74658
7481	0.81228
7482	0.98664
7483	1.1888
7484	1.2976
7485	1.269
7486	1.2282
7487	1.301
7488	1.0566
7489	0.97971
7490	0.91741
7491	0.73878
7492	0.21972
7493	0.18987
7494	0.48474
7495	0.5051
7496	0.73638
7497	0.77276
7498	1.0131
7499	1.2149
7500	1.2925
7501	1.1654
7502	1.1384
7503	1.2985
7504	1.1283
7505	0.97415
7506	0.58975
7507	0.73048
7508	0.50374
7509	0.23348
7510	0.46827
7511	0.54129
7512	0.73165
7513	0.79634
7514	0.99538
7515	1.1895
7516	1.2976
7517	1.269
7518	1.2272
7519	1.2997
7520	1.062
7521	0.96394
7522	0.92443
7523	0.69406
7524	0.25465
7525	0.20779
7526	0.26938
7527	0.17525
7528	0.40401
7529	0.6894
7530	0.92396
7531	1.1252
7532	1.2993
7533	1.1385
7534	1.1651
7535	1.2925
7536	1.2153
7537	1.0137
7538	0.77838
7539	0.75296
7540	0.505
7541	0.35001
7542	0.33919
7543	0.52785
7544	0.74352
7545	0.79605
7546	0.99676
7547	1.1898
7548	1.2974
7549	1.2689
7550	1.2274
7551	1.3004
7552	1.0582
7553	0.95354
7554	0.74717
7555	0.67574
7556	0.24115
7557	0.20091
7558	0.48484
7559	0.50494
7560	0.73677
7561	0.77341
7562	1.0136
7563	1.2149
7564	1.2923
7565	1.1651
7566	1.1386
7567	1.2996
7568	1.1287
7569	0.97129
7570	0.58635
7571	0.72971
7572	0.40386
7573	0.19451
7574	0.46836
7575	0.54143
7576	0.73197
7577	0.79692
7578	0.99594
7579	1.1895
7580	1.2973
7581	1.2689
7582	1.2276
7583	1.3008
7584	1.062
7585	0.96228
7586	0.93704
7587	0.68144
7588	0.22078
7589	0.17981
7590	0.27121
7591	0.23513
7592	0.41455
7593	0.68866
7594	0.92554
7595	1.1276
7596	1.3018
7597	1.1399
7598	1.1662
7599	1.2943
7600	1.214
7601	0.99887
7602	0.85381
7603	0.7525
7604	0.50212
7605	0.4456
7606	0.39897
7607	0.52889
7608	0.74569
7609	0.82602
7610	0.98337
7611	1.1881
7612	1.2985
7613	1.2709
7614	1.2292
7615	1.3031
7616	1.0599
7617	0.95479
7618	0.74874
7619	0.67547
7620	0.22228
7621	0.21848
7622	0.23638
7623	0.19753
7624	0.37271
7625	0.69226
7626	0.9255
7627	1.1274
7628	1.301
7629	1.1397
7630	1.1644
7631	1.2927
7632	1.2159
7633	1.0146
7634	0.77898
7635	0.75332
7636	0.50509
7637	0.35008
7638	0.33922
7639	0.52804
7640	0.74385
7641	0.79663
7642	0.99768
7643	1.1905
7644	1.2978
7645	1.2686
7646	1.2284
7647	1.3022
7648	1.0597
7649	0.95486
7650	0.74915
7651	0.67898
7652	0.19227
7653	0.22129
7654	0.48492
7655	0.50508
7656	0.73721
7657	0.77409
7658	1.0144
7659	1.2153
7660	1.2931
7661	1.1653
7662	1.1392
7663	1.3007
7664	1.1301
7665	0.97153
7666	0.5863
7667	0.7307
7668	0.40522
7669	0.22647
7670	0.46843
7671	0.54165
7672	0.73233
7673	0.79756
7674	0.99682
7675	1.1901
7676	1.2979
7677	1.2695
7678	1.2282
7679	1.3019
7680	1.0627
7681	0.96249
7682	0.93852
7683	0.68325
7684	0.21999
7685	0.17287
7686	0.28503
7687	0.21235
7688	0.41519
7689	0.69158
7690	0.92532
7691	1.127
7692	1.3003
7693	1.1396
7694	1.1656
7695	1.2931
7696	1.2157
7697	1.0145
7698	0.77901
7699	0.75334
7700	0.50498
7701	0.35008
7702	0.33923
7703	0.52801
7704	0.74386
7705	0.79663
7706	0.9976
7707	1.1903
7708	1.2979
7709	1.2698
7710	1.2288
7711	1.3018
7712	1.0591
7713	0.95515
7714	0.75053
7715	0.67941
7716	0.23185
7717	0.27058
7718	24.073
7719	28.411
7720	28.281
7721	28.765
7722	29.244
7723	29.645
7724	29.769
7725	28.628
7726	28.725
7727	28.485
7728	26.005
7729	25.059
7730	27.819
7731	27.76
7732	26.273
7733	26.135
7734	26.663
7735	25.784
7736	24.809
7737	23.901
7738	22.925
7739	22.644
7740	22.387
7741	22.818
7742	22.736
7743	21.945
7744	20.184
7745	19.479
7746	19.723
7747	19.077
7748	18.655
7749	18.254
7750	17.316
7751	17.054
7752	16.455
7753	15.754
7754	14.997
7755	14.79
7756	14.068
7757	12.922
7758	12.465
7759	12.048
7760	11.207
7761	10.509
7762	9.7977
7763	9.0815
7764	8.2976
7765	7.6089
7766	6.663
7767	5.7255
7768	4.8691
7769	4.0745
7770	3.2443
7771	2.3653
7772	1.3827
7773	0.67412
7774	26.941
7775	28.599
7776	27.234
7777	27.727
7778	28.509
7779	35.431
7780	35.144
7781	33.242
7782	30.977
7783	33.106
7784	33.127
7785	34.129
7786	34.01
7787	33.257
7788	32.113
7789	31.99
7790	33.482
7791	33.303
7792	33.318
7793	31.883
7794	31.284
7795	34.871
7796	29.41
7797	31.577
7798	31.191
7799	29.912
7800	28.89
7801	28.701
7802	27.938
7803	26.94
7804	26.095
7805	24.862
7806	24.068
7807	27.576
7808	24.665
7809	24.322
7810	23.156
7811	21.131
7812	20.762
7813	20.925
7814	20.003
7815	19.702
7816	18.743
7817	18.029
7818	17.82
7819	17.015
7820	16.081
7821	15.405
7822	15.054
7823	14.037
7824	13.895
7825	12.73
7826	11.831
7827	11.13
7828	10.333
7829	9.5909
7830	8.8143
7831	8.0401
7832	7.2806
7833	6.2645
7834	5.3877
7835	4.5578
7836	3.6757
7837	2.8142
7838	1.7082
7839	1.1831
7840	0.6992
7841	29.921
7842	1.1143
7843	0.63584
7844	29.74
7845	1.8802
7846	28.917
7847	27.454
7848	28.335
7849	30.777
7850	28.982
7851	28.112
7852	28.847
7853	29.239
7854	28.449
7855	27.882
7856	2.7696
7857	3.6243
7858	4.5062
7859	5.354
7860	6.2033
7861	7.1802
7862	7.8154
7863	8.5989
7864	9.2626
7865	10.157
7866	10.951
7867	11.699
7868	12.349
7869	12.739
7870	13.617
7871	14.702
7872	15.042
7873	15.787
7874	16.181
7875	16.739
7876	17.263
7877	18.002
7878	18.318
7879	19.176
7880	19.774
7881	19.873
7882	20.605
7883	21.607
7884	22.676
7885	23.166
7886	23.756
7887	22.977
7888	22.956
7889	23.521
7890	21.819
7891	24.017
7892	24.924
7893	25.386
7894	25.791
7895	27.16
7896	26.994
7897	27.177
7898	23.107
7899	27.216
7900	27.892
7901	28.742
7902	39.8
7903	40.706
7904	34.882
7905	32.674
7906	33.053
7907	34.595
7908	34.017
7909	33.593
7910	35.122
7911	34.401
7912	32.664
7913	33.729
7914	33.517
7915	33.348
7916	32.37
7917	32.27
7918	35.514
7919	31.579
7920	31.067
7921	31.127
7922	30.528
7923	28.55
7924	27.977
7925	27.569
7926	25.292
7927	26.289
7928	25.684
7929	24.885
7930	25.536
7931	25.647
7932	24.137
7933	23.337
7934	22.269
7935	21.398
7936	20.943
7937	20.717
7938	19.92
7939	18.89
7940	18.649
7941	17.559
7942	16.915
7943	16.333
7944	15.596
7945	15.065
7946	14.228
7947	13.348
7948	12.605
7949	11.823
7950	11.192
7951	10.35
7952	9.3743
7953	8.6915
7954	7.9278
7955	7.2225
7956	6.2961
7957	5.4393
7958	4.5694
7959	3.6842
7960	2.7486
7961	1.8088
7962	1.2834
7963	0.87113
7964	30.523
7965	1.132
7966	0.58627
7967	29.745
7968	1.9881
7969	28.904
7970	27.44
7971	28.323
7972	30.788
7973	29.002
7974	28.116
7975	28.851
7976	29.234
7977	28.351
7978	27.727
7979	2.7482
7980	3.6164
7981	4.5109
7982	5.3604
7983	6.2077
7984	7.1582
7985	7.8889
7986	8.6573
7987	9.2547
7988	10.078
7989	10.948
7990	11.736
7991	12.369
7992	12.766
7993	13.65
7994	14.721
7995	15.074
7996	15.824
7997	16.218
7998	16.759
7999	17.261
8000	17.996
8001	18.305
8002	19.163
8003	19.759
8004	19.848
8005	20.568
8006	21.617
8007	22.817
8008	22.942
8009	23.58
8010	22.829
8011	22.892
8012	23.79
8013	22.74
8014	22.404
8015	24.627
8016	25.627
8017	27.26
8018	28.009
8019	27.679
8020	27.059
8021	23.113
8022	27.188
8023	27.857
8024	28.719
8025	38.9
8026	39.479
8027	34.565
8028	32.325
8029	32.891
8030	34.573
8031	34.035
8032	33.614
8033	35.149
8034	34.411
8035	32.66
8036	33.729
8037	33.516
8038	33.345
8039	32.376
8040	32.253
8041	35.445
8042	31.28
8043	30.861
8044	32.059
8045	31.511
8046	28.058
8047	27.293
8048	27.997
8049	25.481
8050	26.161
8051	25.698
8052	24.849
8053	25.61
8054	24.964
8055	24.434
8056	23.395
8057	22.243
8058	21.385
8059	20.936
8060	20.714
8061	19.917
8062	18.889
8063	18.652
8064	17.58
8065	16.943
8066	16.349
8067	15.6
8068	15.062
8069	14.231
8070	13.366
8071	12.628
8072	11.862
8073	11.141
8074	10.336
8075	9.3823
8076	8.7425
8077	7.9116
8078	7.2077
8079	6.3064
8080	5.448
8081	4.5675
8082	3.6647
8083	2.7041
8084	1.8958
8085	1.2553
8086	0.80075
8087	28.596
8088	1.0455
8089	0.596
8090	28.857
8091	1.9736
8092	28.898
8093	27.404
8094	28.254
8095	30.724
8096	28.907
8097	27.969
8098	28.658
8099	28.951
8100	27.892
8101	27.079
8102	2.7539
8103	3.6193
8104	4.5154
8105	5.364
8106	6.2084
8107	7.1557
8108	7.887
8109	8.6444
8110	9.2487
8111	10.132
8112	10.949
8113	11.688
8114	12.305
8115	12.742
8116	13.619
8117	14.7
8118	15.038
8119	15.782
8120	16.218
8121	16.75
8122	16.771
8123	17.986
8124	18.32
8125	19.177
8126	19.772
8127	19.86
8128	20.577
8129	21.621
8130	22.819
8131	22.948
8132	23.585
8133	22.837
8134	22.902
8135	23.816
8136	22.808
8137	22.591
8138	24.969
8139	25.645
8140	25.931
8141	27.17
8142	27.002
8143	27.193
8144	23.104
8145	27.212
8146	27.889
8147	28.737
8148	38.556
8149	38.736
8150	33.814
8151	31.784
8152	32.465
8153	34.311
8154	33.85
8155	33.49
8156	35.068
8157	34.356
8158	32.624
8159	33.711
8160	33.506
8161	33.368
8162	32.39
8163	32.282
8164	35.551
8165	31.603
8166	31.076
8167	31.126
8168	30.601
8169	28.589
8170	27.535
8171	28.062
8172	25.519
8173	26.157
8174	25.688
8175	24.846
8176	25.609
8177	24.963
8178	24.433
8179	23.395
8180	22.247
8181	21.392
8182	20.947
8183	20.731
8184	19.938
8185	18.856
8186	18.349
8187	17.661
8188	16.948
8189	16.327
8190	15.593
8191	15.063
8192	14.233
8193	13.351
8194	12.537
8195	11.831
8196	11.149
8197	10.386
8198	9.3466
8199	8.7207
8200	7.9022
8201	7.2017
8202	6.3039
8203	5.4486
8204	4.5706
8205	3.6702
8206	2.7188
8207	1.8984
8208	1.235
8209	0.80942
8210	27.501
8211	1.1227
8212	0.57557
8213	27.906
8214	1.9804
8215	28.79
8216	27.282
8217	28.122
8218	30.527
8219	28.696
8220	27.8
8221	28.482
8222	28.691
8223	27.502
8224	26.549
8225	2.7468
8226	3.6121
8227	4.5094
8228	5.3594
8229	6.2048
8230	7.1775
8231	7.8514
8232	8.6386
8233	9.2435
8234	10.168
8235	10.994
8236	11.684
8237	12.304
8238	12.743
8239	13.62
8240	14.7
8241	15.039
8242	15.785
8243	16.18
8244	16.736
8245	17.261
8246	17.999
8247	18.313
8248	19.17
8249	19.766
8250	19.856
8251	20.573
8252	21.619
8253	22.816
8254	22.979
8255	23.414
8256	22.088
8257	22.965
8258	23.819
8259	22.81
8260	22.597
8261	24.986
8262	25.645
8263	25.829
8264	27.474
8265	28.589
8266	26.946
8267	23.043
8268	27.167
8269	27.83
8270	28.648
8271	37.283
8272	38.096
8273	32.901
8274	31.25
8275	31.909
8276	33.798
8277	33.446
8278	33.178
8279	34.766
8280	34.131
8281	32.468
8282	33.565
8283	33.398
8284	33.274
8285	32.323
8286	32.231
8287	35.491
8288	31.596
8289	31.577
8290	31.002
8291	30.521
8292	28.608
8293	27.531
8294	28.044
8295	25.511
8296	26.146
8297	25.677
8298	24.514
8299	25.628
8300	24.974
8301	24.418
8302	23.388
8303	22.241
8304	21.385
8305	20.937
8306	20.713
8307	19.917
8308	18.887
8309	18.646
8310	17.556
8311	16.913
8312	16.33
8313	15.593
8314	15.063
8315	14.232
8316	13.351
8317	12.536
8318	11.829
8319	11.212
8320	10.391
8321	9.3458
8322	8.722
8323	7.9287
8324	7.2179
8325	6.298
8326	5.4449
8327	4.5637
8328	3.6589
8329	2.7078
8330	1.8913
8331	1.2307
8332	0.81318
8333	27.274
8334	1.1372
8335	0.71616
8336	28.57
8337	1.8587
8338	28.855
8339	27.271
8340	28.067
8341	30.616
8342	28.691
8343	27.548
8344	28.12
8345	28.459
8346	27.614
8347	26.889
8348	2.7627
8349	3.6308
8350	4.5099
8351	5.3564
8352	6.206
8353	7.1554
8354	7.8871
8355	8.6452
8356	9.2503
8357	10.134
8358	10.948
8359	11.713
8360	12.348
8361	12.738
8362	13.616
8363	14.702
8364	15.041
8365	15.786
8366	16.178
8367	16.756
8368	17.152
8369	17.596
8370	18.364
8371	19.18
8372	19.777
8373	19.878
8374	20.61
8375	21.612
8376	22.684
8377	23.177
8378	23.77
8379	22.998
8380	22.973
8381	23.534
8382	21.819
8383	22.688
8384	25.01
8385	25.676
8386	25.874
8387	27.497
8388	28.606
8389	26.983
8390	23.05
8391	27.202
8392	27.89
8393	28.744
8394	38.079
8395	38.009
8396	33.488
8397	31.788
8398	32.388
8399	34.085
8400	33.591
8401	33.33
8402	35.071
8403	34.331
8404	32.558
8405	33.733
8406	33.535
8407	33.435
8408	32.435
8409	32.311
8410	35.632
8411	31.672
8412	31.614
8413	31.042
8414	30.582
8415	28.635
8416	27.561
8417	28.07
8418	25.06
8419	26.287
8420	25.715
8421	24.908
8422	25.551
8423	25.66
8424	24.146
8425	23.343
8426	22.275
8427	21.402
8428	20.946
8429	20.722
8430	19.928
8431	18.728
8432	18.686
8433	17.568
8434	16.911
8435	16.333
8436	15.596
8437	15.065
8438	14.227
8439	13.347
8440	12.604
8441	11.828
8442	11.148
8443	10.39
8444	9.3486
8445	8.7217
8446	7.9029
8447	7.202
8448	6.302
8449	5.4422
8450	4.5736
8451	3.6904
8452	2.7401
8453	1.8045
8454	1.3055
8455	0.9067
8456	25.058
8457	1.124
8458	0.65877
8459	26.61
8460	1.8564
8461	28.76
8462	29.509
8463	28.635
8464	28.897
8465	28.579
8466	28.13
8467	28.543
8468	29.078
8469	28.29
8470	28.639
8471	2.7626
8472	3.6286
8473	4.5067
8474	5.354
8475	6.2057
8476	7.1568
8477	7.8865
8478	8.6527
8479	9.2589
8480	10.203
8481	11.033
8482	11.64
8483	12.245
8484	12.797
8485	13.653
8486	14.735
8487	15.089
8488	15.842
8489	16.27
8490	16.807
8491	16.636
8492	17.61
8493	18.396
8494	19.218
8495	19.836
8496	19.918
8497	20.631
8498	21.681
8499	22.895
8500	23.061
8501	23.659
8502	22.653
8503	22.4
8504	24.18
8505	25.011
8506	25.199
8507	26.449
8508	26.894
8509	27.053
8510	28.045
8511	28.647
8512	27.196
8513	23.548
8514	27.832
8515	28.346
8516	27.988
8517	36.591
8518	36.106
8519	34.162
8520	31.9
8521	33.77
8522	33.496
8523	33.387
8524	33.285
8525	33.717
8526	32.532
8527	32.819
8528	33.316
8529	34.157
8530	34.932
8531	32.452
8532	31.614
8533	35.014
8534	31.391
8535	31.766
8536	32.583
8537	31.576
8538	29.496
8539	28.731
8540	30.024
8541	27.723
8542	27.059
8543	25.131
8544	24.667
8545	25.822
8546	25.158
8547	24.608
8548	23.533
8549	22.359
8550	21.489
8551	21.059
8552	20.837
8553	20.02
8554	18.753
8555	18.428
8556	17.735
8557	17.011
8558	16.375
8559	15.625
8560	15.078
8561	14.208
8562	13.377
8563	12.553
8564	11.846
8565	11.284
8566	10.437
8567	9.3702
8568	8.733
8569	7.9107
8570	7.2089
8571	6.3057
8572	5.4435
8573	4.574
8574	3.6916
8575	2.742
8576	1.803
8577	1.3046
8578	0.88869
8579	26.377
8580	1.1223
8581	0.65793
8582	27.092
8583	1.8526
8584	28.844
8585	27.529
8586	28.359
8587	30.637
8588	28.784
8589	27.593
8590	27.828
8591	27.975
8592	26.97
8593	25.962
8594	2.7593
8595	3.6277
8596	4.5072
8597	5.354
8598	6.2045
8599	7.1544
8600	7.8854
8601	8.6429
8602	9.2422
8603	10.167
8604	10.994
8605	11.684
8606	12.303
8607	12.741
8608	13.618
8609	14.699
8610	15.037
8611	15.782
8612	16.174
8613	16.75
8614	17.146
8615	17.586
8616	18.354
8617	19.17
8618	19.762
8619	19.863
8620	20.594
8621	21.592
8622	22.717
8623	23.085
8624	23.784
8625	22.982
8626	22.973
8627	23.525
8628	21.855
8629	22.696
8630	24.959
8631	25.549
8632	25.859
8633	27.21
8634	26.77
8635	25.296
8636	23.504
8637	27.352
8638	27.944
8639	28.694
8640	37.172
8641	37.154
8642	33.084
8643	31.402
8644	31.868
8645	33.502
8646	33.081
8647	33.021
8648	34.708
8649	34.047
8650	32.495
8651	33.582
8652	33.425
8653	33.329
8654	32.45
8655	32.354
8656	35.334
8657	30.73
8658	31.14
8659	30.951
8660	30.291
8661	28.371
8662	27.386
8663	27.909
8664	25.007
8665	26.194
8666	25.653
8667	24.847
8668	25.545
8669	25.616
8670	24.138
8671	23.324
8672	22.253
8673	21.386
8674	20.929
8675	20.707
8676	19.917
8677	18.72
8678	18.679
8679	17.561
8680	16.906
8681	16.328
8682	15.592
8683	15.062
8684	14.232
8685	13.352
8686	12.536
8687	11.829
8688	11.213
8689	10.391
8690	9.3448
8691	8.7198
8692	7.9014
8693	7.2011
8694	6.3004
8695	5.4399
8696	4.5707
8697	3.6865
8698	2.736
8699	1.7985
8700	1.3019
8701	0.88757
8702	23.486
8703	28.699
8704	28.64
8705	28.816
8706	29.423
8707	28.522
8708	30.249
8709	31.682
8710	32.078
8711	30.862
8712	28.238
8713	28.873
8714	29.412
8715	29.044
8716	28.057
8717	25.186
8718	24.868
8719	27.309
8720	27.356
8721	25.624
8722	24.754
8723	24.587
8724	24.115
8725	23.057
8726	22.857
8727	23.135
8728	22.781
8729	22.46
8730	22.773
8731	22.714
8732	21.861
8733	20.45
8734	19.835
8735	19.187
8736	19.056
8737	18.239
8738	18.52
8739	17.386
8740	16.63
8741	16.161
8742	15.861
8743	15.153
8744	14.778
8745	14.124
8746	12.866
8747	12.422
8748	11.932
8749	11.297
8750	10.456
8751	9.5792
8752	8.9441
8753	8.1903
8754	7.5123
8755	6.6201
8756	5.7207
8757	4.8774
8758	4.0708
8759	3.2197
8760	2.344
8761	1.3902
8762	0.68254
8763	38.883
8764	40.233
8765	33.343
8766	31.529
8767	32.737
8768	33.23
8769	33.165
8770	34.164
8771	34.357
8772	35.069
8773	32.605
8774	32.173
8775	32.962
8776	32.697
8777	32.136
8778	31.349
8779	35.283
8780	29.606
8781	30.892
8782	30.38
8783	28.82
8784	27.589
8785	27.201
8786	26.633
8787	24.838
8788	25.357
8789	25.071
8790	24.242
8791	27.43
8792	24.526
8793	24.075
8794	22.838
8795	21.826
8796	20.738
8797	20.663
8798	19.898
8799	19.415
8800	19.319
8801	17.88
8802	17.392
8803	16.52
8804	16.228
8805	15.264
8806	15.196
8807	14.12
8808	13.647
8809	12.472
8810	11.793
8811	11.191
8812	10.248
8813	9.3485
8814	8.6806
8815	7.9255
8816	7.1972
8817	6.2457
8818	5.3806
8819	4.5454
8820	3.6417
8821	2.7711
8822	1.7304
8823	1.2469
8824	0.70123
8825	22.84
8826	27.746
8827	27.894
8828	28.131
8829	28.612
8830	27.625
8831	29.539
8832	31.176
8833	31.696
8834	30.524
8835	27.889
8836	28.601
8837	29.217
8838	28.897
8839	27.925
8840	25.034
8841	24.776
8842	27.271
8843	27.341
8844	25.634
8845	24.785
8846	24.584
8847	24.065
8848	23.082
8849	22.885
8850	23.136
8851	22.785
8852	22.463
8853	22.773
8854	22.713
8855	21.862
8856	20.452
8857	19.835
8858	19.188
8859	19.056
8860	18.24
8861	18.52
8862	17.386
8863	16.63
8864	16.161
8865	15.861
8866	15.153
8867	14.778
8868	14.124
8869	12.868
8870	12.422
8871	11.933
8872	11.297
8873	10.456
8874	9.5801
8875	8.945
8876	8.1914
8877	7.5128
8878	6.6208
8879	5.7217
8880	4.8789
8881	4.0729
8882	3.223
8883	2.3423
8884	1.3779
8885	0.72135
8886	37.694
8887	39.099
8888	32.362
8889	30.915
8890	32.081
8891	32.449
8892	32.422
8893	33.658
8894	33.979
8895	34.803
8896	32.339
8897	31.952
8898	32.826
8899	32.612
8900	32.081
8901	31.293
8902	35.35
8903	29.601
8904	30.889
8905	30.381
8906	28.848
8907	27.618
8908	27.181
8909	26.766
8910	24.885
8911	25.346
8912	25.07
8913	24.242
8914	27.422
8915	24.522
8916	24.072
8917	22.836
8918	21.824
8919	20.737
8920	20.66
8921	19.896
8922	19.414
8923	19.317
8924	17.879
8925	17.39
8926	16.519
8927	16.227
8928	15.263
8929	15.194
8930	14.119
8931	13.646
8932	12.472
8933	11.793
8934	11.191
8935	10.248
8936	9.3489
8937	8.6812
8938	7.9255
8939	7.1971
8940	6.2459
8941	5.3815
8942	4.5465
8943	3.6434
8944	2.7767
8945	1.6947
8946	1.183
8947	0.73769
8948	23.727
8949	27.824
8950	27.492
8951	27.785
8952	28.517
8953	27.566
8954	29.587
8955	31.282
8956	31.756
8957	30.545
8958	27.886
8959	28.589
8960	29.205
8961	28.889
8962	27.921
8963	25.029
8964	24.772
8965	27.277
8966	27.342
8967	25.627
8968	24.795
8969	24.586
8970	24.062
8971	23.083
8972	22.885
8973	23.136
8974	22.784
8975	22.463
8976	22.774
8977	22.714
8978	21.862
8979	20.452
8980	19.836
8981	19.189
8982	19.057
8983	18.24
8984	18.521
8985	17.387
8986	16.631
8987	16.162
8988	15.861
8989	15.153
8990	14.778
8991	14.125
8992	12.868
8993	12.423
8994	11.933
8995	11.298
8996	10.457
8997	9.58
8998	8.9447
8999	8.1908
9000	7.5122
9001	6.6193
9002	5.7179
9003	4.8715
9004	4.0701
9005	3.2146
9006	2.3042
9007	1.5217
9008	0.71501
9009	36.78
9010	38.255
9011	32.338
9012	30.838
9013	32.176
9014	32.663
9015	32.651
9016	33.827
9017	34.044
9018	34.822
9019	32.333
9020	31.933
9021	32.809
9022	32.6
9023	32.075
9024	31.289
9025	35.353
9026	29.601
9027	30.897
9028	30.393
9029	28.857
9030	27.623
9031	27.173
9032	26.772
9033	24.888
9034	25.349
9035	25.07
9036	24.243
9037	27.427
9038	24.525
9039	24.074
9040	22.837
9041	21.825
9042	20.738
9043	20.661
9044	19.898
9045	19.415
9046	19.318
9047	17.88
9048	17.391
9049	16.52
9050	16.228
9051	15.264
9052	15.195
9053	14.12
9054	13.646
9055	12.472
9056	11.793
9057	11.191
9058	10.248
9059	9.3489
9060	8.6808
9061	7.9254
9062	7.1963
9063	6.2442
9064	5.3758
9065	4.5426
9066	3.6493
9067	2.7597
9068	1.8028
9069	1.2698
9070	0.86666
9071	29.025
9072	22.626
9073	22.068
9074	22.853
9075	22.469
9076	22.762
9077	22.707
9078	21.863
9079	20.449
9080	19.824
9081	19.177
9082	19.045
9083	18.233
9084	18.512
9085	17.38
9086	16.626
9087	16.157
9088	15.857
9089	15.15
9090	14.775
9091	14.122
9092	12.865
9093	12.42
9094	11.931
9095	11.296
9096	10.455
9097	9.5786
9098	8.9437
9099	8.19
9100	7.5116
9101	6.6193
9102	5.7169
9103	4.8667
9104	4.0771
9105	3.2383
9106	2.3692
9107	1.4036
9108	0.72915
9109	28.869
9110	29.032
9111	27.47
9112	28.284
9113	30.712
9114	28.838
9115	27.872
9116	28.514
9117	28.889
9118	28.199
9119	27.741
9120	23.763
9121	25.205
9122	25.941
9123	27.799
9124	28.764
9125	27.178
9126	23.374
9127	27.43
9128	28.087
9129	28.908
9130	22.408
9131	22.252
9132	38.765
9133	39.071
9134	33.834
9135	32.323
9136	32.617
9137	34.084
9138	33.627
9139	33.363
9140	35.02
9141	34.356
9142	32.661
9143	33.783
9144	33.607
9145	33.471
9146	32.498
9147	32.352
9148	35.43
9149	31.587
9150	31.584
9151	30.8
9152	30.076
9153	29.52
9154	27.418
9155	28.086
9156	25.265
9157	26.646
9158	24.85
9159	24.217
9160	27.355
9161	24.484
9162	24.052
9163	22.828
9164	21.81
9165	20.723
9166	20.645
9167	19.884
9168	19.406
9169	19.308
9170	17.874
9171	17.385
9172	16.515
9173	16.224
9174	15.26
9175	15.192
9176	14.117
9177	13.645
9178	12.47
9179	11.791
9180	11.19
9181	10.247
9182	9.3479
9183	8.6801
9184	7.9246
9185	7.1957
9186	6.2439
9187	5.3722
9188	4.545
9189	3.6619
9190	2.7875
9191	1.7198
9192	1.2213
9193	0.7434
9194	10.783
9195	25.465
9196	35.262
9197	47.53
9198	54.77
9199	20.57
9200	11.027
9201	26.145
9202	35.324
9203	43.776
9204	17.207
9205	17.409
9206	8.9005
9207	31.068
9208	13.353
9209	39.878
9210	50.571
9211	27.043
9212	28.951
9213	7.7463
9214	42.789
9215	33.984
9216	43.158
9217	42.456
9218	15.836
9219	15.627
9220	13.046
9221	20.016
9222	48.549
9223	32.346
9224	5.9195
9225	24.782
9226	5.2401
9227	44.042
9228	60.142
9229	6.1984
9230	30.121
9231	2.9086
9232	46.921
9233	34.863
9234	38.532
9235	41.55
9236	22.164
9237	22.356
9238	38.916
9239	46.509
9240	20.9
9241	41.219
9242	8.4246
9243	28.706
9244	47.759
9245	23.375
9246	30.508
9247	13.706
9248	18.311
9249	9.6262
9250	32.134
9251	35.483
9252	39.438
9253	13.737
9254	13.407
9255	3.6736
9256	33.823
9257	36.045
9258	36.497
9259	11.527
9260	13.788
9261	49.622
9262	16.49
9263	8.1994
9264	37.18
9265	43.69
9266	25.737
9267	32.384
9268	55.755
9269	24.838
9270	41.11
9271	3.7943
9272	31.219
9273	22.869
9274	37.508
9275	43.907
9276	10.887
9277	11.822
9278	44.722
9279	19.285
9280	17.718
9281	40.083
9282	47.632
9283	28.262
9284	16.133
9285	3.838
9286	23.003
9287	19.3
9288	52.825
9289	51.938
9290	26.468
9291	17.524
9292	4.1854
9293	47.294
9294	50.43
9295	19.496
9296	40.1
9297	33.579
9298	2.4629
9299	43.815
9300	14.102
9301	10.952
9302	20.456
9303	53.765
9304	53.296
9305	14.791
9306	23.387
9307	30.416
9308	24.334
9309	59.248
9310	25.749
9311	5.9354
9312	12.22
9313	41.061
9314	38.022
9315	20.398
9316	19.662
9317	48.572
9318	30.578
9319	7.4827
9320	57.188
9321	26.01
9322	17.591
9323	52.518
9324	37.885
9325	41.811
9326	43.939
9327	26.563
9328	26.485
9329	22.95
9330	24.401
9331	2.9074
9332	5.6488
9333	16.081
9334	39.995
9335	31.211
9336	52.887
9337	10.029
9338	8.4607
9339	28.867
9340	28.958
9341	37.486
9342	11.107
9343	48.637
9344	18.806
9345	33.726
9346	22.316
9347	32.653
9348	8.7567
9349	27.653
9350	36.841
9351	1.6993
9352	58.001
9353	14.94
9354	36.616
9355	10.786
9356	25.456
9357	35.259
9358	47.522
9359	54.684
9360	20.123
9361	11.025
9362	26.159
9363	35.333
9364	43.79
9365	17.2
9366	17.407
9367	8.8979
9368	31.067
9369	13.339
9370	39.823
9371	50.696
9372	27.036
9373	28.954
9374	7.7473
9375	42.781
9376	33.981
9377	43.164
9378	42.452
9379	15.835
9380	15.644
9381	13.042
9382	19.959
9383	48.539
9384	32.342
9385	5.9205
9386	24.79
9387	5.2392
9388	44.042
9389	59.721
9390	6.1974
9391	30.107
9392	2.9065
9393	46.917
9394	34.869
9395	39.315
9396	41.623
9397	22.161
9398	22.355
9399	38.916
9400	46.612
9401	20.896
9402	41.231
9403	8.4237
9404	28.7
9405	47.782
9406	23.364
9407	30.503
9408	13.704
9409	18.305
9410	9.6336
9411	32.15
9412	35.676
9413	39.432
9414	13.75
9415	13.409
9416	3.677
9417	33.821
9418	36.044
9419	36.51
9420	11.523
9421	13.782
9422	49.604
9423	16.526
9424	8.1989
9425	37.18
9426	43.706
9427	25.735
9428	32.383
9429	55.646
9430	24.848
9431	41.089
9432	3.7942
9433	31.216
9434	22.886
9435	37.516
9436	43.893
9437	10.88
9438	11.828
9439	44.691
9440	19.228
9441	17.858
9442	40.076
9443	47.635
9444	28.27
9445	16.134
9446	3.8399
9447	22.989
9448	19.298
9449	52.802
9450	51.993
9451	26.469
9452	17.528
9453	4.1858
9454	47.293
9455	50.431
9456	19.496
9457	40.097
9458	33.573
9459	2.4614
9460	43.812
9461	14.11
9462	10.943
9463	20.455
9464	53.733
9465	53.12
9466	14.786
9467	23.382
9468	30.41
9469	24.325
9470	58.747
9471	25.74
9472	5.9338
9473	12.221
9474	41.047
9475	38.023
9476	20.388
9477	19.651
9478	48.561
9479	30.578
9480	7.4837
9481	56.626
9482	25.605
9483	17.494
9484	52.484
9485	37.891
9486	41.81
9487	43.964
9488	26.554
9489	26.509
9490	22.953
9491	24.399
9492	2.9065
9493	5.6484
9494	16.076
9495	39.988
9496	30.652
9497	52.869
9498	10.027
9499	8.4589
9500	28.865
9501	29.662
9502	37.497
9503	11.107
9504	49.617
9505	18.808
9506	33.729
9507	22.32
9508	32.652
9509	8.7563
9510	27.662
9511	36.834
9512	1.6866
9513	57.726
9514	14.963
9515	36.368
9516	10.783
9517	25.464
9518	35.26
9519	47.538
9520	54.887
9521	20.57
9522	11.028
9523	26.147
9524	35.321
9525	43.78
9526	17.207
9527	17.408
9528	8.8995
9529	31.061
9530	13.352
9531	39.883
9532	50.659
9533	27.042
9534	28.95
9535	7.7465
9536	42.788
9537	33.984
9538	43.168
9539	42.457
9540	15.835
9541	15.628
9542	13.046
9543	20.017
9544	48.571
9545	32.343
9546	5.9188
9547	24.787
9548	5.2402
9549	44.045
9550	60.748
9551	6.1985
9552	30.098
9553	2.9082
9554	46.939
9555	34.914
9556	38.532
9557	41.477
9558	22.164
9559	22.355
9560	38.916
9561	47.013
9562	20.9
9563	41.213
9564	8.4241
9565	28.704
9566	47.731
9567	23.375
9568	30.507
9569	13.705
9570	18.31
9571	9.6284
9572	32.125
9573	35.48
9574	39.436
9575	13.744
9576	13.407
9577	3.6871
9578	33.817
9579	36.048
9580	36.504
9581	11.527
9582	13.788
9583	49.67
9584	16.49
9585	8.199
9586	37.178
9587	43.612
9588	25.736
9589	32.378
9590	55.747
9591	24.845
9592	40.884
9593	3.7953
9594	31.219
9595	22.869
9596	37.514
9597	43.909
9598	10.886
9599	11.819
9600	44.724
9601	19.284
9602	17.718
9603	40.084
9604	47.639
9605	28.264
9606	16.132
9607	4.1237
9608	23.002
9609	19.319
9610	52.89
9611	51.894
9612	26.468
9613	17.525
9614	4.1866
9615	47.314
9616	50.454
9617	19.495
9618	40.102
9619	33.576
9620	2.4619
9621	43.818
9622	14.102
9623	10.95
9624	20.453
9625	53.822
9626	53.564
9627	14.791
9628	23.387
9629	30.414
9630	24.333
9631	59.219
9632	25.748
9633	5.9333
9634	12.219
9635	41.063
9636	38.024
9637	20.398
9638	19.661
9639	48.592
9640	30.575
9641	7.4816
9642	58.474
9643	25.605
9644	17.592
9645	52.595
9646	37.894
9647	41.812
9648	43.915
9649	26.561
9650	26.506
9651	22.954
9652	24.399
9653	2.9074
9654	5.6488
9655	16.081
9656	39.992
9657	31.384
9658	52.934
9659	10.029
9660	8.4616
9661	28.86
9662	29.657
9663	37.435
9664	11.108
9665	47.524
9666	18.805
9667	33.73
9668	22.322
9669	32.654
9670	8.7567
9671	27.658
9672	36.84
9673	1.695
9674	58.141
9675	14.94
9676	35.63
9677	10.783
9678	25.466
9679	35.261
9680	47.576
9681	55.145
9682	20.571
9683	11.027
9684	26.147
9685	35.32
9686	43.783
9687	17.207
9688	17.408
9689	8.9004
9690	31.064
9691	13.352
9692	39.885
9693	50.428
9694	27.043
9695	28.951
9696	7.7466
9697	42.809
9698	33.985
9699	43.15
9700	42.469
9701	15.833
9702	15.628
9703	13.047
9704	20.016
9705	48.645
9706	32.344
9707	5.9185
9708	24.786
9709	5.2403
9710	44.041
9711	60.514
9712	6.1987
9713	30.091
9714	2.9091
9715	46.972
9716	34.903
9717	38.5
9718	41.025
9719	22.165
9720	22.355
9721	38.926
9722	46.26
9723	20.899
9724	41.103
9725	8.4244
9726	28.705
9727	47.516
9728	23.376
9729	30.508
9730	13.706
9731	18.311
9732	9.6265
9733	32.122
9734	35.466
9735	39.448
9736	13.742
9737	13.407
9738	3.6756
9739	33.821
9740	36.046
9741	36.468
9742	11.528
9743	13.788
9744	49.791
9745	16.49
9746	8.1996
9747	37.182
9748	43.327
9749	25.737
9750	32.38
9751	55.766
9752	24.845
9753	40.463
9754	3.7943
9755	31.218
9756	22.871
9757	37.512
9758	43.907
9759	10.887
9760	11.818
9761	44.744
9762	19.286
9763	17.719
9764	40.089
9765	47.671
9766	28.263
9767	16.133
9768	3.8376
9769	23.003
9770	19.299
9771	53.011
9772	51.954
9773	26.469
9774	17.523
9775	4.1856
9776	47.356
9777	50.496
9778	19.496
9779	40.1
9780	33.579
9781	2.4627
9782	43.844
9783	14.102
9784	10.953
9785	20.454
9786	54.029
9787	53.905
9788	14.791
9789	23.387
9790	30.415
9791	24.334
9792	55.479
9793	25.749
9794	5.9353
9795	12.22
9796	41.069
9797	38.022
9798	20.399
9799	19.662
9800	48.665
9801	30.575
9802	7.4822
9803	57.711
9804	25.6
9805	17.592
9806	52.771
9807	37.819
9808	41.822
9809	43.817
9810	26.563
9811	26.5
9812	22.949
9813	24.397
9814	2.9075
9815	5.649
9816	16.082
9817	39.966
9818	31.158
9819	53.058
9820	10.029
9821	8.4607
9822	28.861
9823	29.65
9824	37.247
9825	11.108
9826	46.407
9827	18.805
9828	33.723
9829	22.316
9830	32.652
9831	8.7568
9832	27.658
9833	36.845
9834	1.6839
9835	58.739
9836	14.94
9837	35.213
9838	10.783
9839	25.463
9840	35.261
9841	47.53
9842	54.893
9843	20.569
9844	11.027
9845	26.144
9846	35.321
9847	43.784
9848	17.207
9849	17.408
9850	8.9
9851	31.064
9852	13.354
9853	39.877
9854	50.892
9855	27.042
9856	28.949
9857	7.7463
9858	42.783
9859	33.984
9860	43.206
9861	42.454
9862	15.837
9863	15.628
9864	13.046
9865	20.017
9866	48.564
9867	32.343
9868	5.9204
9869	24.784
9870	5.2405
9871	44.04
9872	60.702
9873	6.1982
9874	30.121
9875	2.9066
9876	46.928
9877	34.914
9878	38.525
9879	41.488
9880	22.163
9881	22.356
9882	38.91
9883	46.615
9884	20.9
9885	41.273
9886	8.4247
9887	28.704
9888	47.7
9889	23.374
9890	30.508
9891	13.706
9892	18.31
9893	9.6283
9894	32.12
9895	35.488
9896	39.432
9897	13.739
9898	13.407
9899	3.6752
9900	33.818
9901	36.051
9902	36.529
9903	11.527
9904	13.787
9905	49.73
9906	16.49
9907	8.1989
9908	37.176
9909	43.738
9910	25.737
9911	32.379
9912	56.171
9913	24.839
9914	40.685
9915	3.7944
9916	31.221
9917	22.868
9918	37.507
9919	43.903
9920	10.886
9921	11.824
9922	44.717
9923	19.284
9924	17.718
9925	40.084
9926	47.631
9927	28.261
9928	16.133
9929	3.8449
9930	23.002
9931	19.3
9932	52.901
9933	51.67
9934	26.466
9935	17.525
9936	4.186
9937	47.391
9938	50.465
9939	19.496
9940	40.105
9941	33.577
9942	2.4622
9943	43.813
9944	14.101
9945	10.949
9946	20.458
9947	53.987
9948	53.547
9949	14.79
9950	23.387
9951	30.414
9952	24.333
9953	59.977
9954	25.747
9955	5.9342
9956	12.22
9957	41.056
9958	38.025
9959	20.397
9960	19.661
9961	48.59
9962	30.576
9963	7.4824
9964	57.85
9965	26.017
9966	17.592
9967	52.566
9968	37.931
9969	41.811
9970	43.947
9971	26.561
9972	26.497
9973	22.954
9974	24.404
9975	2.907
9976	5.6485
9977	16.081
9978	39.999
9979	31.149
9980	52.928
9981	10.029
9982	8.4606
9983	28.864
9984	29.674
9985	37.432
9986	11.107
9987	48.095
9988	18.805
9989	33.733
9990	22.317
9991	32.655
9992	8.7567
9993	27.653
9994	36.84
9995	1.6932
9996	58.414
9997	14.94
9998	35.863
9999	10.784
10000	25.465
10001	35.259
10002	47.798
10003	55.124
10004	20.572
10005	11.027
10006	26.151
10007	35.37
10008	42.967
10009	17.208
10010	17.409
10011	8.901
10012	31.086
10013	13.353
10014	39.908
10015	50.392
10016	27.039
10017	28.962
10018	7.7468
10019	43.252
10020	33.948
10021	43.299
10022	42.618
10023	15.833
10024	15.629
10025	13.046
10026	20.018
10027	48.4
10028	32.351
10029	5.92
10030	24.785
10031	5.2402
10032	44.348
10033	60.935
10034	6.1984
10035	30.108
10036	2.9089
10037	47.025
10038	34.843
10039	38.244
10040	41.165
10041	22.164
10042	22.357
10043	39.075
10044	46.205
10045	20.901
10046	41.211
10047	8.4249
10048	28.712
10049	47.109
10050	23.377
10051	30.498
10052	13.706
10053	18.31
10054	9.6268
10055	32.132
10056	35.288
10057	39.371
10058	13.743
10059	13.408
10060	3.6736
10061	33.842
10062	36.078
10063	36.345
10064	11.527
10065	13.788
10066	51.315
10067	16.492
10068	8.1998
10069	37.206
10070	43.272
10071	25.735
10072	32.4
10073	55.042
10074	24.839
10075	40.457
10076	3.7944
10077	31.222
10078	22.871
10079	37.6
10080	43.698
10081	10.887
10082	11.819
10083	45.026
10084	19.287
10085	17.72
10086	39.952
10087	47.272
10088	28.269
10089	16.133
10090	3.8377
10091	23.004
10092	19.297
10093	53.725
10094	51.838
10095	26.474
10096	17.523
10097	4.1857
10098	47.588
10099	48.956
10100	19.496
10101	40.449
10102	33.557
10103	2.4626
10104	46.025
10105	14.102
10106	10.954
10107	20.454
10108	53.493
10109	53.952
10110	14.791
10111	23.387
10112	30.411
10113	24.333
10114	61.639
10115	25.751
10116	5.9355
10117	12.221
10118	41.327
10119	38.018
10120	20.4
10121	19.663
10122	47.823
10123	30.589
10124	7.4822
10125	58.898
10126	26.465
10127	17.592
10128	51.144
10129	37.807
10130	42.326
10131	44.007
10132	26.564
10133	26.483
10134	22.945
10135	24.394
10136	2.9073
10137	5.6489
10138	16.081
10139	39.931
10140	31.048
10141	51.28
10142	10.029
10143	8.4605
10144	28.871
10145	29.605
10146	37.327
10147	11.108
10148	47.172
10149	18.805
10150	33.869
10151	22.312
10152	32.669
10153	8.7572
10154	27.654
10155	36.782
10156	1.6905
10157	57.028
10158	14.939
10159	34.576
10160	10.783
10161	25.458
10162	35.263
10163	47.635
10164	54.506
10165	20.572
10166	11.028
10167	26.135
10168	35.336
10169	43.812
10170	17.207
10171	17.409
10172	8.9015
10173	31.068
10174	13.347
10175	39.914
10176	50.19
10177	27.041
10178	28.948
10179	7.7463
10180	42.808
10181	33.98
10182	42.982
10183	42.41
10184	15.922
10185	15.612
10186	13.046
10187	20.031
10188	48.688
10189	32.343
10190	5.9191
10191	24.786
10192	5.2402
10193	43.962
10194	59.808
10195	6.1985
10196	29.918
10197	2.9066
10198	46.925
10199	34.884
10200	38.547
10201	43.138
10202	22.137
10203	22.356
10204	38.924
10205	47.529
10206	20.901
10207	40.879
10208	8.4246
10209	28.704
10210	47.634
10211	23.371
10212	30.507
10213	13.706
10214	18.31
10215	9.6345
10216	32.151
10217	35.55
10218	39.42
10219	13.769
10220	13.404
10221	3.6742
10222	33.819
10223	36.055
10224	36.554
10225	11.527
10226	13.787
10227	49.233
10228	16.493
10229	8.1999
10230	37.182
10231	39.023
10232	25.737
10233	32.383
10234	55.887
10235	24.864
10236	38.72
10237	3.7949
10238	31.223
10239	22.868
10240	37.536
10241	43.954
10242	10.888
10243	11.824
10244	44.784
10245	19.283
10246	17.719
10247	40.069
10248	47.658
10249	28.267
10250	16.133
10251	4.124
10252	22.999
10253	19.371
10254	52.308
10255	51.86
10256	26.466
10257	17.525
10258	4.1864
10259	45.184
10260	50.314
10261	19.496
10262	40.11
10263	33.573
10264	2.4623
10265	43.768
10266	14.102
10267	10.957
10268	20.376
10269	54.349
10270	53.463
10271	14.791
10272	23.387
10273	30.413
10274	24.331
10275	59.594
10276	25.748
10277	5.9345
10278	12.22
10279	41.095
10280	38.011
10281	20.395
10282	19.661
10283	48.915
10284	30.578
10285	7.4787
10286	57.474
10287	26.242
10288	17.618
10289	51.038
10290	38.001
10291	41.759
10292	44.274
10293	26.56
10294	26.754
10295	23.018
10296	24.951
10297	2.9073
10298	5.6489
10299	16.081
10300	40.061
10301	31.233
10302	53.87
10303	10.03
10304	8.4618
10305	28.861
10306	29.254
10307	38.193
10308	11.107
10309	48.648
10310	18.805
10311	33.747
10312	21.662
10313	32.656
10314	8.7568
10315	27.672
10316	36.833
10317	1.5485
10318	58.721
10319	15.128
10320	10.783
10321	25.46
10322	35.263
10323	47.546
10324	55.044
10325	20.572
10326	11.027
10327	26.134
10328	35.328
10329	43.879
10330	17.207
10331	17.408
10332	8.9013
10333	31.068
10334	13.347
10335	39.897
10336	50.465
10337	27.042
10338	28.948
10339	7.7466
10340	42.794
10341	33.985
10342	43.047
10343	42.456
10344	15.921
10345	15.611
10346	13.046
10347	20.03
10348	48.566
10349	32.344
10350	5.9188
10351	24.784
10352	5.2406
10353	44.038
10354	60.253
10355	6.1984
10356	29.911
10357	2.9068
10358	46.944
10359	34.868
10360	38.581
10361	42.928
10362	22.136
10363	22.355
10364	38.919
10365	47.053
10366	20.9
10367	40.883
10368	8.4247
10369	28.704
10370	47.673
10371	23.371
10372	30.509
10373	13.706
10374	18.31
10375	9.6345
10376	32.145
10377	35.557
10378	39.438
10379	13.768
10380	13.404
10381	3.6738
10382	33.821
10383	36.051
10384	36.565
10385	11.527
10386	13.788
10387	49.492
10388	16.493
10389	8.2
10390	37.183
10391	38.779
10392	25.737
10393	32.383
10394	56.273
10395	24.864
10396	38.083
10397	3.795
10398	31.221
10399	22.869
10400	37.519
10401	43.968
10402	10.888
10403	11.824
10404	44.745
10405	19.283
10406	17.719
10407	40.087
10408	47.676
10409	28.265
10410	16.133
10411	3.8449
10412	23.
10413	19.369
10414	52.91
10415	51.692
10416	26.466
10417	17.524
10418	4.1863
10419	45.309
10420	50.492
10421	19.495
10422	40.101
10423	33.578
10424	2.4624
10425	43.817
10426	14.102
10427	10.957
10428	20.374
10429	54.72
10430	53.641
10431	14.79
10432	23.387
10433	30.415
10434	24.332
10435	59.779
10436	25.748
10437	5.9344
10438	12.22
10439	41.071
10440	38.022
10441	20.396
10442	19.661
10443	48.584
10444	30.576
10445	7.4785
10446	58.36
10447	26.237
10448	17.617
10449	52.651
10450	38.003
10451	41.807
10452	44.349
10453	26.561
10454	26.753
10455	23.016
10456	24.948
10457	2.9075
10458	5.6489
10459	16.081
10460	39.995
10461	31.348
10462	52.973
10463	10.029
10464	8.4608
10465	28.86
10466	29.358
10467	38.07
10468	11.108
10469	47.108
10470	18.805
10471	33.73
10472	21.66
10473	32.653
10474	8.7569
10475	27.671
10476	36.845
10477	1.6538
10478	59.047
10479	15.128
10480	10.783
10481	25.459
10482	35.263
10483	47.537
10484	54.966
10485	20.572
10486	11.027
10487	26.134
10488	35.328
10489	43.89
10490	17.207
10491	17.409
10492	8.902
10493	31.067
10494	13.347
10495	39.897
10496	49.693
10497	27.042
10498	28.947
10499	7.7463
10500	42.79
10501	33.985
10502	43.073
10503	42.455
10504	15.922
10505	15.612
10506	13.046
10507	20.03
10508	48.545
10509	32.344
10510	5.9193
10511	24.784
10512	5.2404
10513	44.041
10514	60.143
10515	6.1986
10516	29.913
10517	2.9083
10518	46.943
10519	34.872
10520	38.584
10521	43.053
10522	22.136
10523	22.357
10524	38.917
10525	47.756
10526	20.9
10527	40.887
10528	8.4249
10529	28.703
10530	47.712
10531	23.371
10532	30.509
10533	13.706
10534	18.31
10535	9.6349
10536	32.146
10537	35.56
10538	39.435
10539	13.768
10540	13.404
10541	3.671
10542	33.82
10543	36.053
10544	36.572
10545	11.527
10546	13.787
10547	49.466
10548	16.493
10549	8.2002
10550	37.182
10551	38.674
10552	25.738
10553	32.382
10554	57.416
10555	24.864
10556	38.749
10557	3.7943
10558	31.223
10559	22.869
10560	37.52
10561	43.971
10562	10.888
10563	11.824
10564	44.742
10565	19.283
10566	17.718
10567	40.087
10568	47.668
10569	28.265
10570	16.134
10571	3.8377
10572	23.
10573	19.37
10574	52.872
10575	51.69
10576	26.465
10577	17.525
10578	4.1855
10579	45.351
10580	50.482
10581	19.496
10582	40.103
10583	33.578
10584	2.4627
10585	43.813
10586	14.102
10587	10.957
10588	20.375
10589	54.606
10590	53.567
10591	14.79
10592	23.388
10593	30.415
10594	24.332
10595	60.428
10596	25.748
10597	5.9358
10598	12.221
10599	41.07
10600	38.025
10601	20.395
10602	19.661
10603	48.572
10604	30.576
10605	7.4792
10606	58.19
10607	26.24
10608	17.617
10609	52.622
10610	38.008
10611	41.807
10612	44.358
10613	26.561
10614	26.753
10615	23.017
10616	24.949
10617	2.9074
10618	5.6489
10619	16.08
10620	40.
10621	31.393
10622	52.949
10623	10.029
10624	8.4607
10625	28.86
10626	29.36
10627	38.011
10628	11.107
10629	46.925
10630	18.806
10631	33.734
10632	21.661
10633	32.655
10634	8.7568
10635	27.671
10636	36.844
10637	1.6877
10638	59.074
10639	15.128
10640	10.784
10641	25.46
10642	35.255
10643	47.695
10644	54.565
10645	20.574
10646	11.027
10647	26.14
10648	35.354
10649	43.578
10650	17.208
10651	17.409
10652	8.902
10653	31.084
10654	13.348
10655	39.895
10656	50.488
10657	27.038
10658	28.958
10659	7.7468
10660	43.196
10661	33.951
10662	43.048
10663	42.632
10664	15.919
10665	15.612
10666	13.046
10667	20.032
10668	48.043
10669	32.347
10670	5.9191
10671	24.785
10672	5.2406
10673	44.351
10674	60.161
10675	6.1984
10676	29.897
10677	2.9061
10678	46.973
10679	34.863
10680	38.367
10681	41.328
10682	22.137
10683	22.357
10684	39.029
10685	45.762
10686	20.901
10687	41.188
10688	8.4248
10689	28.71
10690	47.23
10691	23.373
10692	30.499
10693	13.706
10694	18.31
10695	9.6347
10696	32.13
10697	35.392
10698	39.366
10699	13.768
10700	13.405
10701	3.6724
10702	33.833
10703	36.083
10704	36.486
10705	11.527
10706	13.788
10707	49.387
10708	16.495
10709	8.2003
10710	37.193
10711	43.65
10712	25.734
10713	32.389
10714	55.536
10715	24.863
10716	40.54
10717	3.7944
10718	31.223
10719	22.871
10720	37.582
10721	43.692
10722	10.889
10723	11.824
10724	44.816
10725	19.285
10726	17.721
10727	39.962
10728	47.339
10729	28.271
10730	16.133
10731	3.845
10732	23.002
10733	19.367
10734	51.982
10735	51.591
10736	26.471
10737	17.523
10738	4.186
10739	47.197
10740	49.929
10741	19.495
10742	40.449
10743	33.555
10744	2.4623
10745	46.04
10746	14.103
10747	10.957
10748	20.371
10749	53.723
10750	53.625
10751	14.79
10752	23.386
10753	30.41
10754	24.331
10755	55.152
10756	25.751
10757	5.9346
10758	12.22
10759	41.224
10760	38.027
10761	20.398
10762	19.662
10763	47.912
10764	30.585
10765	7.4788
10766	57.792
10767	26.208
10768	17.618
10769	50.819
10770	37.876
10771	42.333
10772	43.807
10773	26.563
10774	26.79
10775	23.007
10776	24.941
10777	2.9071
10778	5.6489
10779	16.081
10780	39.955
10781	32.518
10782	51.013
10783	10.029
10784	8.4607
10785	28.866
10786	29.606
10787	37.442
10788	11.108
10789	48.127
10790	18.804
10791	33.869
10792	21.653
10793	32.67
10794	8.7571
10795	27.676
10796	36.785
10797	1.543
10798	58.403
10799	15.128
10800	35.314
10801	11.782
10802	11.71
10803	10.495
10804	11.31
10805	11.201
10806	10.124
10807	10.577
10808	12.183
10809	14.958
10810	12.549
10811	14.017
10812	11.577
10813	13.27
10814	13.457
10815	12.363
10816	13.573
10817	12.338
10818	12.622
10819	11.796
10820	12.691
10821	11.412
10822	10.83
10823	11.387
10824	11.347
10825	12.089
10826	12.231
10827	12.732
10828	10.928
10829	11.758
10830	11.887
10831	10.673
10832	12.355
10833	11.531
10834	11.435
10835	12.527
10836	12.057
10837	14.392
10838	11.442
10839	10.877
10840	11.295
10841	12.076
10842	13.142
10843	10.981
10844	11.905
10845	11.206
10846	11.458
10847	11.347
10848	12.58
10849	13.876
10850	12.61
10851	10.891
10852	11.197
10853	12.632
10854	11.607
10855	11.516
10856	11.139
10857	13.299
10858	14.815
10859	11.487
10860	12.51
10861	14.902
10862	13.682
10863	13.46
10864	12.188
10865	11.848
10866	11.374
10867	11.316
10868	12.93
10869	10.591
10870	10.853
10871	11.688
10872	11.938
10873	14.699
10874	12.561
10875	11.41
10876	12.739
10877	11.131
10878	12.741
10879	11.703
10880	11.722
10881	10.556
10882	11.475
10883	11.099
10884	10.308
10885	14.014
10886	13.476
10887	12.71
10888	12.64
10889	13.111
10890	14.031
10891	11.592
10892	11.65
10893	10.66
10894	12.271
10895	14.374
10896	14.333
10897	13.472
10898	13.795
10899	4.7271
10900	5.2482
10901	1.6274
10902	4.3287
10903	3.6579
10904	0.96794
10905	5.1012
10906	2.5121
10907	2.5494
10908	2.4961
10909	2.4727
10910	2.6707
10911	2.4174
10912	20.301
10913	10.909
10914	11.933
10915	19.178
10916	12.8
10917	18.242
10918	15.755
10919	19.82
10920	18.341
10921	21.192
10922	20.508
10923	20.185
10924	14.349
10925	13.526
10926	21.657
10927	13.053
10928	17.323
10929	16.121
10930	14.541
10931	20.705
10932	14.648
10933	19.448
10934	20.115
10935	14.432
10936	13.883
10937	20.283
10938	17.736
10939	16.697
10940	16.951
10941	15.04
10942	18.966
10943	13.367
10944	0.75681
10945	1.1858
10946	0.52333
10947	0.77351
10948	0.62536
10949	0.747
10950	0.8758
10951	0.74159
10952	1.0038
10953	0.41001
10954	0.7822
10955	0.99515
10956	0.54443
10957	1.0453
10958	1.5446
10959	0.61481
10960	0.59462
10961	0.90965
10962	0.68013
10963	0.83166
10964	0.93062
10965	0.67461
10966	0.94642
10967	0.98552
10968	0.85309
10969	0.62696
10970	0.64807
10971	0.76785
10972	0.62698
10973	0.7749
10974	0.7745
10975	0.59862
10976	1.3984
10977	1.394
10978	0.76395
10979	1.022
10980	0.58549
10981	1.1006
10982	0.98889
10983	0.64723
10984	0.94398
10985	0.75445
10986	0.48391
10987	0.36668
10988	0.60782
10989	1.0766
10990	1.0227
10991	0.53219
10992	0.96656
10993	1.1877
10994	0.79567
10995	0.77214
10996	1.0909
10997	1.8465
10998	0.70723
10999	0.71946
11000	0.53907
11001	0.45653
11002	0.83353
11003	1.2909
11004	1.0507
11005	0.44284
11006	0.72822
11007	0.38671
11008	0.99415
11009	0.91928
11010	1.0684
11011	0.82748
11012	0.57778
11013	0.90694
11014	0.74856
11015	1.0435
11016	0.96804
11017	0.52516
11018	1.3903
11019	0.50788
11020	1.6331
11021	0.68848
11022	1.0128
11023	0.49654
11024	0.98641
11025	2.1534
11026	2.0516
11027	0.98633
11028	2.1534
11029	2.0516
11030	1.0655
11031	2.1543
11032	2.0486
11033	0.98665
11034	2.1534
11035	2.0517
11036	1.0584
11037	2.153
11038	2.0464
11039	0.98374
11040	2.1551
11041	2.0504
11042	0.98366
11043	2.1552
11044	2.0504
11045	0.98375
11046	2.1552
11047	2.0505
11048	1.0683
11049	2.1965
11050	2.0426
11051	0.9902
11052	2.1954
11053	2.0454
11054	1.068
11055	2.1987
11056	2.0419
11057	1.0778
11058	2.2018
11059	2.0507
11060	10.51
11061	9.0446
11062	8.0106
11063	8.3701
11064	1.8492
11065	7.5605
11066	10.233
11067	1.6086
11068	9.6892
11069	3.5075
11070	8.8854
11071	8.8537
11072	8.3522
11073	1.2679
11074	10.22
11075	3.6406
11076	9.6275
11077	5.3362
11078	0.67966
11079	1.8127
11080	8.9922
11081	1.675
11082	2.893
11083	8.3766
11084	8.0127
11085	9.724
11086	9.3691
11087	6.239
11088	1.1767
11089	2.5357
11090	9.731
11091	2.7265
11092	2.0928
11093	9.8314
11094	1.7629
11095	10.142
11096	9.326
11097	10.825
11098	10.074
11099	9.3087
11100	8.164
11101	1.4693
11102	1.7063
11103	7.8709
11104	9.4703
11105	1.8821
11106	7.296
11107	6.0954
11108	7.1637
11109	2.0528
11110	2.4518
11111	1.3909
11112	4.6085
11113	8.1501
11114	1.0936
11115	4.7191
11116	2.3737
11117	7.9683
11118	5.8432
11119	7.9328
11120	2.4379
11121	10.365
11122	7.9005
11123	3.7572
11124	1.981
11125	1.666
11126	5.9514
11127	2.0639
11128	1.7305
11129	1.5491
11130	1.8776
11131	1.5067
11132	9.4448
11133	6.5311
11134	9.2972
11135	10.409
11136	1.8381
11137	1.4636
11138	3.1345
11139	8.1334
11140	1.3076
11141	1.6279
11142	1.334
11143	1.3514
11144	0.56619
11145	0.53316
11146	0.45348
11147	0.52693
11148	0.52487
11149	0.4444
11150	0.4361
11151	0.44202
11152	0.40716
11153	0.47971
11154	0.48948
11155	0.51545
11156	2.3896
11157	7.0192
11158	3.5605
11159	7.2463
11160	1.7707
11161	1.8734
11162	11.382
11163	2.8699
11164	3.3615
11165	3.2164
11166	1.0767
11167	7.2668
11168	5.0358
11169	4.2205
11170	3.6519
11171	2.9212
11172	2.2949
11173	5.5319
11174	2.7304
11175	8.4545
11176	9.3721
11177	4.7745
11178	2.6766
11179	3.6449
11180	1.9994
11181	7.5191
11182	1.932
11183	4.1738
11184	2.3408
11185	9.6225
11186	7.7345
11187	2.6743
11188	5.1181
11189	3.8642
11190	4.4531
11191	9.3973
11192	6.4049
11193	2.1835
11194	4.3854
11195	2.3272
11196	7.1152
11197	4.8216
11198	8.5136
11199	8.6847
11200	6.3993
11201	8.8602
11202	11.716
11203	6.235
11204	1.523
11205	2.6478
11206	2.9086
11207	4.3383
11208	1.1643
11209	4.6032
11210	5.2419
11211	5.6038
11212	6.6447
11213	3.6847
11214	9.3902
11215	1.1751
11216	5.3437
11217	1.6376
11218	4.7861
11219	9.9034
11220	1.5406
11221	5.9529
11222	0.86624
11223	2.2196
11224	4.6993
11225	1.8566
11226	3.4913
11227	2.5122
11228	4.251
11229	1.292
11230	2.5704
11231	6.1508
11232	5.1243
11233	1.1633
11234	0.92821
11235	10.757
11236	11.282
11237	4.3079
11238	3.7792
11239	8.8438
11240	9.5291
11241	1.7086
11242	11.653
11243	10.837
11244	10.267
11245	7.0761
11246	13.526
11247	10.033
11248	8.9389
11249	1.5098
11250	7.9977
11251	5.477
11252	6.2611
11253	5.0202
11254	5.1844
11255	6.8681
11256	5.5611
11257	5.3281
11258	6.9138
11259	3.2214
11260	7.6977
11261	7.4812
11262	3.9944
11263	7.4755
11264	8.2599
11265	7.5923
11266	4.974
11267	2.7205
11268	4.7469
11269	5.7426
11270	3.0037
11271	4.9888
11272	2.2513
11273	8.5239
11274	6.5314
11275	6.5777
11276	5.2445
11277	4.2167
11278	7.6546
11279	4.1931
11280	4.6431
11281	3.4283
11282	3.9208
11283	3.8928
11284	6.6303
11285	3.3434
11286	5.149
11287	10.291
11288	4.9836
11289	8.502
11290	5.86
11291	2.1013
11292	3.4686
11293	4.9873
11294	9.3129
11295	5.13
11296	6.9632
11297	1.4302
11298	0.26779
11299	0.22088
11300	0.21687
11301	0.1663
11302	0.18039
11303	0.19987
11304	0.29528
11305	0.17629
11306	0.17963
11307	0.21041
11308	0.20813
11309	1.685
11310	8.9352
11311	9.9467
11312	1.8147
11313	1.7445
11314	1.1644
11315	1.1315
11316	1.1347
11317	1.7136
11318	1.1893
11319	10.594
11320	1.1643
11321	12.469
11322	11.669
11323	10.655
11324	1.1643
11325	10.645
11326	10.686
11327	12.452
11328	12.47
11329	12.508
11330	10.687
11331	1.1346
11332	12.509
11333	8.133
11334	1.1893
11335	8.1291
11336	10.597
11337	12.436
11338	1.7859
11339	16.88
11340	8.1341
11341	8.1319
11342	8.1327
11343	18.129
11344	10.686
11345	18.472
11346	10.647
11347	12.508
11348	8.1333
11349	12.437
11350	18.474
11351	8.1332
11352	18.598
11353	19.079
11354	1.1893
11355	19.08
11356	8.132
11357	1.1929
11358	8.133
11359	18.474
11360	10.685
11361	19.081
11362	12.507
11363	10.608
11364	18.478
11365	12.451
11366	27.784
11367	8.1332
11368	8.1363
11369	19.074
11370	18.637
11371	31.255
11372	32.338
11373	33.215
11374	31.289
11375	31.305
11376	32.059
11377	35.741
11378	33.314
11379	33.314
11380	32.058
11381	34.112
11382	32.727
11383	34.103
11384	32.907
11385	31.304
11386	34.273
11387	32.862
11388	27.193
11389	33.84
11390	33.322
11391	34.427
11392	32.12
11393	33.824
11394	33.286
11395	31.311
11396	34.792
11397	34.17
11398	32.039
11399	1.1643
11400	34.217
11401	32.909
11402	34.67
11403	33.31
11404	29.169
11405	34.779
11406	35.486
11407	34.304
11408	32.765
11409	34.554
11410	34.031
11411	30.479
11412	33.057
11413	35.577
11414	32.437
11415	33.741
11416	32.79
11417	10.593
11418	30.457
11419	34.783
11420	33.265
11421	12.469
11422	31.426
11423	32.522
11424	34.758
11425	33.389
11426	31.73
11427	31.239
11428	36.049
11429	34.501
11430	34.515
11431	33.202
11432	33.892
11433	32.908
11434	34.266
11435	34.492
11436	8.1338
11437	32.031
11438	33.074
11439	18.473
11440	34.646
11441	33.461
11442	33.604
11443	34.405
11444	33.576
11445	33.393
11446	30.234
11447	31.258
11448	32.461
11449	33.291
11450	31.335
11451	33.853
11452	34.389
11453	32.878
11454	2.86
11455	4.3251
11456	4.3187
11457	5.7886
11458	2.6431
11459	2.0211
11460	34.841
11461	34.29
11462	34.233
11463	4.0001
11464	7.9307
11465	6.4278
11466	9.2451
11467	1.5248
11468	2.3044
11469	29.498
11470	6.2503
11471	1.4619
11472	3.3398
11473	9.9049
11474	5.2871
11475	34.704
11476	2.3976
11477	7.7336
11478	20.701
11479	1.9002
11480	20.612
11481	6.5625
11482	3.8501
11483	3.4915
11484	3.1869
11485	9.5348
11486	6.2915
11487	0.39265
11488	1.1587
11489	7.8835
11490	9.4272
11491	29.769
11492	2.1157
11493	34.13
11494	29.54
11495	3.1783
11496	1.3824
11497	29.4
11498	28.881
11499	1.1593
11500	0.39288
11501	29.396
11502	28.806
11503	28.807
11504	20.746
11505	29.4
11506	29.392
11507	20.666
11508	21.063
11509	21.09
11510	29.395
11511	29.362
11512	20.711
11513	21.073
11514	20.621
11515	21.103
11516	20.708
11517	20.619
11518	21.073
11519	21.102
11520	2.1135
11521	21.072
11522	2.1158
11523	20.704
11524	20.696
11525	21.101
11526	20.62
11527	20.613
11528	20.703
11529	20.617
11530	20.919
11531	3.181
11532	3.0955
11533	2.1156
11534	2.1157
11535	2.1158
11536	1.1532
11537	3.1925
11538	2.1155
11539	3.1823
11540	13.105
11541	2.1163
11542	2.1165
11543	2.1156
11544	3.1759
11545	1.3819
11546	2.3538
11547	0.33054
11548	2.1159
11549	1.3816
11550	1.2099
11551	3.1936
11552	3.1778
11553	1.1266
11554	3.2077
11555	3.2016
11556	3.1073
11557	0.3907
11558	1.7114
11559	3.1958
11560	1.3854
11561	1.7503
11562	0.3233
11563	0.39023
11564	1.7136
11565	0.34337
11566	0.33074
11567	4.5287
11568	6.4879
11569	3.8024
11570	4.0102
11571	7.1436
11572	3.4841
11573	2.7986
11574	1.2504
11575	0.92194
11576	1.0034
11577	0.9847
11578	39.602
11579	1.003
11580	22.541
11581	8.2378
11582	30.531
11583	2.8499
11584	4.6978
11585	28.998
11586	6.3199
11587	7.1245
11588	2.0389
11589	25.374
11590	9.8968
11591	23.568
11592	1.5778
11593	32.485
11594	1.5468
11595	8.001
11596	9.7666
11597	6.3259
11598	6.0758
11599	8.4903
11600	1.3927
11601	3.2113
11602	22.877
11603	2.8186
11604	19.827
11605	32.916
11606	2.3467
11607	17.272
11608	9.6961
11609	6.8941
11610	19.172
11611	10.199
11612	1.4699
11613	2.4455
11614	21.828
11615	4.8715
11616	6.2355
11617	4.6236
11618	3.5529
11619	39.609
11620	14.047
11621	0.94056
11622	17.904
11623	22.015
11624	31.809
11625	31.078
11626	2.7083
11627	22.18
11628	1.7458
11629	1.7665
11630	30.628
11631	1.5404
11632	30.418
11633	28.447
11634	10.705
11635	2.3474
11636	1.8017
11637	29.03
11638	19.27
11639	27.642
11640	25.709
11641	33.351
11642	39.265
11643	39.252
11644	30.601
11645	31.475
11646	25.436
11647	0.33468
11648	29.077
11649	30.497
11650	39.248
11651	30.618
11652	31.479
11653	39.255
11654	25.407
11655	29.056
11656	39.25
11657	31.481
11658	30.62
11659	39.251
11660	39.248
11661	30.519
11662	29.48
11663	33.147
11664	30.516
11665	19.858
11666	29.088
11667	39.232
11668	30.578
11669	25.457
11670	24.244
11671	31.893
11672	29.051
11673	25.385
11674	25.335
11675	24.234
11676	25.457
11677	25.382
11678	25.454
11679	14.094
11680	19.832
11681	14.446
11682	25.545
11683	13.1
11684	1.6311
11685	1.7639
11686	19.835
11687	1.5305
11688	1.7499
11689	1.7664
11690	2.3466
11691	1.5398
11692	1.8035
11693	2.3473
11694	1.8038
11695	19.83
11696	19.836
11697	1.3733
11698	14.049
11699	14.448
11700	19.833
11701	1.3748
11702	19.481
11703	13.102
11704	1.7497
11705	1.7663
11706	14.05
11707	1.6243
11708	1.7664
11709	0.30986
11710	1.5304
11711	2.3478
11712	1.5395
11713	1.0515
11714	14.448
11715	0.47496
11716	2.3483
11717	1.8033
11718	1.8039
11719	1.7474
11720	1.7666
11721	14.447
11722	13.102
11723	14.048
11724	14.093
11725	2.3473
11726	1.5385
11727	13.102
11728	1.7459
11729	1.7665
11730	1.8015
11731	1.5406
11732	1.3754
11733	1.3725
11734	14.049
11735	1.7499
11736	1.7658
11737	2.3472
11738	1.6222
11739	1.7658
11740	1.7437
11741	1.7647
11742	1.5398
11743	1.8019
11744	1.5316
11745	1.5358
11746	10.341
11747	2.3481
11748	2.3484
11749	2.3472
11750	1.6299
11751	1.7631
11752	1.8039
11753	1.8036
11754	1.0528
11755	1.7456
11756	1.7668
11757	1.8034
11758	2.1106
11759	0.3204
11760	1.5402
11761	1.3394
11762	1.5334
11763	0.44011
11764	2.3471
11765	1.8102
11766	0.35509
11767	1.8021
11768	1.3779
11769	1.3676
11770	1.3702
11771	1.4174
11772	0.32551
11773	0.33645
11774	0.29463
11775	0.3765
11776	0.41142
11777	0.99063
11778	0.43564
11779	1.0439
11780	1.9127
11781	8.5161
11782	8.3133
11783	7.2743
11784	5.5073
11785	1.2055
11786	1.0741
11787	1.0761
11788	1.4894
11789	4.8598
11790	3.2332
11791	3.0724
11792	0.9727
11793	0.94215
11794	0.80307
11795	4.5712
11796	0.86568
11797	8.1655
11798	8.7147
11799	4.6225
11800	6.8288
11801	1.2092
11802	1.1089
11803	1.0938
11804	1.0916
11805	1.2426
11806	1.2379
11807	1.2354
11808	1.2051
11809	26.671
11810	31.623
11811	30.82
11812	33.756
11813	32.872
11814	34.105
11815	33.095
11816	33.952
11817	30.049
11818	32.237
11819	26.721
11820	26.651
11821	26.735
11822	23.988
11823	27.022
11824	24.281
11825	26.901
11826	27.202
11827	26.775
11828	24.449
11829	26.723
11830	24.449
